#  GHZ S DB R 50
 1.00000000e-02 -2.768881550982e-07 -8.769426297265e-03 -7.733394808116e+01 +8.999194391281e+01 -7.733394808023e+01 +8.999194391126e+01 -1.138754389712e-07 -8.781298120962e-03
 2.00000000e-02 -5.816087565753e-07 -1.753885523656e-02 -7.131334625022e+01 +8.998387055537e+01 -7.131334625000e+01 +8.998387055440e+01 -4.158442731335e-07 -1.756263368523e-02
 1.00000000e-01 -1.037275752752e-05 -8.769383946450e-02 -5.733391262873e+01 +8.991934268401e+01 -5.733391262872e+01 +8.991934268388e+01 -1.008611869532e-05 -8.781280630620e-02
 2.00000000e-01 -4.096252453777e-05 -1.753847847886e-01 -5.131320094073e+01 +8.983862412891e+01 -5.131320094072e+01 +8.983862412886e+01 -4.028523093637e-05 -1.756228272368e-01
 3.00000000e-01 -9.185230130269e-05 -2.630698007429e-01 -4.779119076314e+01 +8.975774518109e+01 -4.779119076314e+01 +8.975774518103e+01 -9.051755963060e-05 -2.634272654787e-01
 4.00000000e-01 -1.628694467037e-04 -3.507460927384e-01 -4.529216463300e+01 +8.967663136820e+01 -4.529216463299e+01 +8.967663136817e+01 -1.606239875874e-04 -3.512235477188e-01
 5.00000000e-01 -2.537877760652e-04 -4.384112182243e-01 -4.335365460101e+01 +8.959522460580e+01 -4.335365460100e+01 +8.959522460578e+01 -2.503970878929e-04 -4.390093999761e-01
 6.00000000e-01 -3.643459912858e-04 -5.260631047742e-01 -4.176967034656e+01 +8.951348013942e+01 -4.176967034655e+01 +8.951348013939e+01 -3.595962400550e-04 -5.267828802333e-01
 7.00000000e-01 -4.942622915869e-04 -6.137000517798e-01 -4.043033487589e+01 +8.943136629082e+01 -4.043033487588e+01 +8.943136629079e+01 -4.879611846916e-04 -6.145423873279e-01
 8.00000000e-01 -6.432471766570e-04 -7.013207134524e-01 -3.927006509530e+01 +8.934886375462e+01 -3.927006509529e+01 +8.934886375459e+01 -6.352240811841e-04 -7.022866478757e-01
 9.00000000e-01 -8.110138835072e-04 -7.889240652616e-01 -3.824656141128e+01 +8.926596410920e+01 -3.824656141127e+01 +8.926596410916e+01 -8.011193270043e-04 -7.900146861967e-01
 1.00000000e+00 -9.972860606451e-04 -8.765093604094e-01 -3.733094406202e+01 +8.918266787786e+01 -3.733094406202e+01 +8.918266787783e+01 -9.853907743102e-04 -8.777257843831e-01
 1.10000000e+00 -1.201802771419e-03 -9.640760831060e-01 -3.650261577988e+01 +8.909898248383e+01 -3.650261577987e+01 +8.909898248380e+01 -1.187796441688e-03 -9.654194391119e-01
 1.20000000e+00 -1.424321246105e-03 -1.051623903759e+00 -3.574636931926e+01 +8.901492034090e+01 -3.574636931926e+01 +8.901492034085e+01 -1.408111116361e-03 -1.053095320080e+00
 1.30000000e+00 -1.664617934441e-03 -1.139152639155e+00 -3.505065679345e+01 +8.893049721612e+01 -3.505065679344e+01 +8.893049721608e+01 -1.646127362237e-03 -1.140753232990e+00
 1.40000000e+00 -1.922488401451e-03 -1.226662218951e+00 -3.440650226096e+01 +8.884573091614e+01 -3.440650226096e+01 +8.884573091611e+01 -1.901655438895e-03 -1.228393088358e+00
 1.50000000e+00 -2.197746521570e-03 -1.314152658561e+00 -3.380679042689e+01 +8.876064029080e+01 -3.380679042689e+01 +8.876064029076e+01 -2.174522558568e-03 -1.316014876267e+00
 1.60000000e+00 -2.490223310325e-03 -1.401624037787e+00 -3.324578541016e+01 +8.867524451531e+01 -3.324578541016e+01 +8.867524451527e+01 -2.464571797644e-03 -1.403618646471e+00
 1.70000000e+00 -2.799765622650e-03 -1.489076484240e+00 -3.271879568554e+01 +8.858956259868e+01 -3.271879568554e+01 +8.858956259864e+01 -2.771660880994e-03 -1.491204492990e+00
 1.80000000e+00 -3.126234856749e-03 -1.576510160538e+00 -3.222193495967e+01 +8.850361306508e+01 -3.222193495967e+01 +8.850361306504e+01 -3.095660969789e-03 -1.578772542247e+00
 1.90000000e+00 -3.469505735204e-03 -1.663925254379e+00 -3.175194779792e+01 +8.841741376092e+01 -3.175194779792e+01 +8.841741376089e+01 -3.436455522906e-03 -1.666322943901e+00
 2.00000000e+00 -3.829465193660e-03 -1.751321970733e+00 -3.130608003857e+01 +8.833098174916e+01 -3.130608003856e+01 +8.833098174913e+01 -3.793939261263e-03 -1.753855863670e+00
 2.10000000e+00 -4.206011379581e-03 -1.838700525603e+00 -3.088198086161e+01 +8.824433326152e+01 -3.088198086161e+01 +8.824433326149e+01 -4.168017237858e-03 -1.841371477625e+00
 2.20000000e+00 -4.599052752023e-03 -1.926061140925e+00 -3.047762766369e+01 +8.815748368747e+01 -3.047762766369e+01 +8.815748368744e+01 -4.558604005789e-03 -1.928869967526e+00
 2.30000000e+00 -5.008507267416e-03 -2.013404040332e+00 -3.009126764840e+01 +8.807044758529e+01 -3.009126764840e+01 +8.807044758526e+01 -4.965622867904e-03 -2.016351516968e+00
 2.40000000e+00 -5.434301635987e-03 -2.100729445579e+00 -2.972137185828e+01 +8.798323870562e+01 -2.972137185828e+01 +8.798323870559e+01 -5.389005195770e-03 -2.103816308113e+00
 2.50000000e+00 -5.876370635992e-03 -2.188037573505e+00 -2.936659859800e+01 +8.789587002135e+01 -2.936659859800e+01 +8.789587002132e+01 -5.828689802447e-03 -2.191264518910e+00
 2.60000000e+00 -6.334656474802e-03 -2.275328633443e+00 -2.902576403653e+01 +8.780835376028e+01 -2.902576403653e+01 +8.780835376026e+01 -6.284622360199e-03 -2.278696320720e+00
 2.70000000e+00 -6.809108189557e-03 -2.362602825031e+00 -2.869781836120e+01 +8.772070143842e+01 -2.869781836120e+01 +8.772070143839e+01 -6.756754854289e-03 -2.366111876282e+00
 2.80000000e+00 -7.299681082141e-03 -2.449860336363e+00 -2.838182627126e+01 +8.763292389295e+01 -2.838182627126e+01 +8.763292389292e+01 -7.245045068180e-03 -2.453511338001e+00
 2.90000000e+00 -7.806336185147e-03 -2.537101342471e+00 -2.807695089661e+01 +8.754503131437e+01 -2.807695089661e+01 +8.754503131434e+01 -7.749456096593e-03 -2.540894846515e+00
 3.00000000e+00 -8.329039756974e-03 -2.624326004095e+00 -2.778244044436e+01 +8.745703327760e+01 -2.778244044436e+01 +8.745703327757e+01 -8.269955884571e-03 -2.628262529530e+00
 3.10000000e+00 -8.867762805004e-03 -2.711534466718e+00 -2.749761703632e+01 +8.736893877214e+01 -2.749761703632e+01 +8.736893877211e+01 -8.806516790825e-03 -2.715614500893e+00
 3.20000000e+00 -9.422480636155e-03 -2.798726859844e+00 -2.722186731964e+01 +8.728075623130e+01 -2.722186731964e+01 +8.728075623128e+01 -9.359115175600e-03 -2.802950859888e+00
 3.30000000e+00 -9.993172434871e-03 -2.885903296489e+00 -2.695463452314e+01 +8.719249356054e+01 -2.695463452314e+01 +8.719249356051e+01 -9.927731012694e-03 -2.890271690727e+00
 3.40000000e+00 -1.057982086787e-02 -2.973063872874e+00 -2.669541170004e+01 +8.710415816499e+01 -2.669541170004e+01 +8.710415816497e+01 -1.051234752494e-02 -2.977577062223e+00
 3.50000000e+00 -1.118241171514e-02 -3.060208668272e+00 -2.644373595070e+01 +8.701575697626e+01 -2.644373595070e+01 +8.701575697625e+01 -1.111295084334e-02 -3.064867027617e+00
 3.60000000e+00 -1.180093352736e-02 -3.147337745018e+00 -2.619918345963e+01 +8.692729647834e+01 -2.619918345963e+01 +8.692729647832e+01 -1.172952968962e-02 -3.152141624552e+00
 3.70000000e+00 -1.243537730827e-02 -3.234451148626e+00 -2.596136521266e+01 +8.683878273275e+01 -2.596136521266e+01 +8.683878273273e+01 -1.236207508115e-02 -3.239400875150e+00
 3.80000000e+00 -1.308573622171e-02 -3.321548908034e+00 -2.572992328557e+01 +8.675022140294e+01 -2.572992328557e+01 +8.675022140292e+01 -1.301058005838e-02 -3.326644786207e+00
 3.90000000e+00 -1.375200532199e-02 -3.408631035912e+00 -2.550452761483e+01 +8.666161777766e+01 -2.550452761483e+01 +8.666161777764e+01 -1.367503943342e-02 -3.413873349461e+00
 4.00000000e+00 -1.443418130678e-02 -3.495697529064e+00 -2.528487317735e+01 +8.657297679360e+01 -2.528487317735e+01 +8.657297679358e+01 -1.435544955881e-02 -3.501086541935e+00
 4.10000000e+00 -1.513226229123e-02 -3.582748368872e+00 -2.507067751851e+01 +8.648430305700e+01 -2.507067751851e+01 +8.648430305699e+01 -1.505180811612e-02 -3.588284326334e+00
 4.20000000e+00 -1.584624760191e-02 -3.669783521793e+00 -2.486167857802e+01 +8.639560086440e+01 -2.486167857802e+01 +8.639560086439e+01 -1.576411392285e-02 -3.675466651491e+00
 4.30000000e+00 -1.657613758980e-02 -3.756802939882e+00 -2.465763277167e+01 +8.630687422234e+01 -2.465763277167e+01 +8.630687422233e+01 -1.649236675633e-02 -3.762633452838e+00
 4.40000000e+00 -1.732193346060e-02 -3.843806561346e+00 -2.445831329360e+01 +8.621812686618e+01 -2.445831329360e+01 +8.621812686617e+01 -1.723656719425e-02 -3.849784652909e+00
 4.50000000e+00 -1.808363712114e-02 -3.930794311108e+00 -2.426350860924e+01 +8.612936227793e+01 -2.426350860924e+01 +8.612936227791e+01 -1.799671647005e-02 -3.936920161858e+00
 4.60000000e+00 -1.886125104134e-02 -4.017766101382e+00 -2.407302111394e+01 +8.604058370308e+01 -2.407302111394e+01 +8.604058370307e+01 -1.877281634236e-02 -4.024039877986e+00
 4.70000000e+00 -1.965477812937e-02 -4.104721832246e+00 -2.388666593573e+01 +8.595179416663e+01 -2.388666593573e+01 +8.595179416662e+01 -1.956486897749e-02 -4.111143688268e+00
 4.80000000e+00 -2.046422162035e-02 -4.191661392220e+00 -2.370426986414e+01 +8.586299648799e+01 -2.370426986414e+01 +8.586299648798e+01 -2.037287684388e-02 -4.198231468888e+00
 4.90000000e+00 -2.128958497608e-02 -4.278584658831e+00 -2.352567038936e+01 +8.577419329523e+01 -2.352567038936e+01 +8.577419329522e+01 -2.119684261742e-02 -4.285303085762e+00
 5.00000000e+00 -2.213087179591e-02 -4.365491499165e+00 -2.335071483844e+01 +8.568538703827e+01 -2.335071483844e+01 +8.568538703826e+01 -2.203676909706e-02 -4.372358395054e+00
 5.10000000e+00 -2.298808573726e-02 -4.452381770421e+00 -2.317925959699e+01 +8.559658000136e+01 -2.317925959699e+01 +8.559658000135e+01 -2.289265912948e-02 -4.459397243686e+00
 5.20000000e+00 -2.386123044510e-02 -4.539255320429e+00 -2.301116940635e+01 +8.550777431477e+01 -2.301116940635e+01 +8.550777431476e+01 -2.376451554202e-02 -4.546419469828e+00
 5.30000000e+00 -2.475030948942e-02 -4.626111988172e+00 -2.284631672771e+01 +8.541897196564e+01 -2.284631672771e+01 +8.541897196564e+01 -2.465234108404e-02 -4.633424903378e+00
 5.40000000e+00 -2.565532631028e-02 -4.712951604279e+00 -2.268458116558e+01 +8.533017480822e+01 -2.268458116558e+01 +8.533017480821e+01 -2.555613837392e-02 -4.720413366429e+00
 5.50000000e+00 -2.657628416926e-02 -4.799773991499e+00 -2.252584894412e+01 +8.524138457333e+01 -2.252584894412e+01 +8.524138457332e+01 -2.647590985376e-02 -4.807384673709e+00
 5.60000000e+00 -2.751318610722e-02 -4.886578965163e+00 -2.237001243065e+01 +8.515260287728e+01 -2.237001243065e+01 +8.515260287728e+01 -2.741165774899e-02 -4.894338633017e+00
 5.70000000e+00 -2.846603490721e-02 -4.973366333625e+00 -2.221696970120e+01 +8.506383123014e+01 -2.221696970120e+01 +8.506383123013e+01 -2.836338403306e-02 -4.981275045633e+00
 5.80000000e+00 -2.943483306255e-02 -5.060135898679e+00 -2.206662414390e+01 +8.497507104338e+01 -2.206662414390e+01 +8.497507104337e+01 -2.933109039744e-02 -5.068193706713e+00
 5.90000000e+00 -3.041958274924e-02 -5.146887455961e+00 -2.191888409618e+01 +8.488632363708e+01 -2.191888409619e+01 +8.488632363707e+01 -3.031477822531e-02 -5.155094405664e+00
 6.00000000e+00 -3.142028580219e-02 -5.233620795336e+00 -2.177366251247e+01 +8.479759024661e+01 -2.177366251247e+01 +8.479759024660e+01 -3.131444856906e-02 -5.241976926506e+00
 6.10000000e+00 -3.243694369530e-02 -5.320335701257e+00 -2.163087665926e+01 +8.470887202878e+01 -2.163087665926e+01 +8.470887202877e+01 -3.233010213141e-02 -5.328841048216e+00
 6.20000000e+00 -3.346955752453e-02 -5.407031953113e+00 -2.149044783500e+01 +8.462017006763e+01 -2.149044783500e+01 +8.462017006762e+01 -3.336173924934e-02 -5.415686545049e+00
 6.30000000e+00 -3.451812799387e-02 -5.493709325562e+00 -2.135230111238e+01 +8.453148537977e+01 -2.135230111238e+01 +8.453148537977e+01 -3.440935988088e-02 -5.502513186852e+00
 6.40000000e+00 -3.558265540387e-02 -5.580367588837e+00 -2.121636510080e+01 +8.444281891936e+01 -2.121636510080e+01 +8.444281891936e+01 -3.547296359438e-02 -5.589320739353e+00
 6.50000000e+00 -3.666313964247e-02 -5.667006509046e+00 -2.108257172734e+01 +8.435417158270e+01 -2.108257172734e+01 +8.435417158269e+01 -3.655254955960e-02 -5.676108964446e+00
 6.60000000e+00 -3.775958017786e-02 -5.753625848451e+00 -2.095085603436e+01 +8.426554421252e+01 -2.095085603436e+01 +8.426554421252e+01 -3.764811654112e-02 -5.762877620446e+00
 6.70000000e+00 -3.887197605305e-02 -5.840225365733e+00 -2.082115599231e+01 +8.417693760198e+01 -2.082115599231e+01 +8.417693760197e+01 -3.875966289330e-02 -5.849626462346e+00
 6.80000000e+00 -4.000032588200e-02 -5.926804816240e+00 -2.069341232643e+01 +8.408835249829e+01 -2.069341232643e+01 +8.408835249829e+01 -3.988718655662e-02 -5.936355242049e+00
 6.90000000e+00 -4.114462784748e-02 -6.013363952230e+00 -2.056756835599e+01 +8.399978960622e+01 -2.056756835600e+01 +8.399978960622e+01 -4.103068505568e-02 -6.023063708589e+00
 7.00000000e+00 -4.230487969963e-02 -6.099902523088e+00 -2.044356984524e+01 +8.391124959120e+01 -2.044356984524e+01 +8.391124959120e+01 -4.219015549778e-02 -6.109751608347e+00
 7.10000000e+00 -4.348107875609e-02 -6.186420275543e+00 -2.032136486473e+01 +8.382273308228e+01 -2.032136486473e+01 +8.382273308228e+01 -4.336559457346e-02 -6.196418685246e+00
 7.20000000e+00 -4.467322190271e-02 -6.272916953861e+00 -2.020090366247e+01 +8.373424067488e+01 -2.020090366247e+01 +8.373424067487e+01 -4.455699855675e-02 -6.283064680936e+00
 7.30000000e+00 -4.588130559547e-02 -6.359392300040e+00 -2.008213854386e+01 +8.364577293327e+01 -2.008213854386e+01 +8.364577293327e+01 -4.576436330743e-02 -6.369689334977e+00
 7.40000000e+00 -4.710532586266e-02 -6.445846053980e+00 -1.996502375987e+01 +8.355733039298e+01 -1.996502375987e+01 +8.355733039298e+01 -4.698768427293e-02 -6.456292385001e+00
 7.50000000e+00 -4.834527830809e-02 -6.532277953656e+00 -1.984951540262e+01 +8.346891356292e+01 -1.984951540262e+01 +8.346891356291e+01 -4.822695649141e-02 -6.542873566870e+00
 7.60000000e+00 -4.960115811454e-02 -6.618687735274e+00 -1.973557130795e+01 +8.338052292740e+01 -1.973557130795e+01 +8.338052292740e+01 -4.948217459533e-02 -6.629432614825e+00
 7.70000000e+00 -5.087296004784e-02 -6.705075133415e+00 -1.962315096429e+01 +8.329215894804e+01 -1.962315096429e+01 +8.329215894804e+01 -5.075333281491e-02 -6.715969261624e+00
 7.80000000e+00 -5.216067846126e-02 -6.791439881181e+00 -1.951221542745e+01 +8.320382206544e+01 -1.951221542745e+01 +8.320382206543e+01 -5.204042498278e-02 -6.802483238677e+00
 7.90000000e+00 -5.346430730022e-02 -6.877781710323e+00 -1.940272724078e+01 +8.311551270081e+01 -1.940272724078e+01 +8.311551270081e+01 -5.334344453820e-02 -6.888974276162e+00
 8.00000000e+00 -5.478384010723e-02 -6.964100351367e+00 -1.929465036040e+01 +8.302723125748e+01 -1.929465036040e+01 +8.302723125747e+01 -5.466238453183e-02 -6.975442103151e+00
 8.10000000e+00 -5.611927002712e-02 -7.050395533728e+00 -1.918795008502e+01 +8.293897812223e+01 -1.918795008502e+01 +8.293897812222e+01 -5.599723763078e-02 -7.061886447712e+00
 8.20000000e+00 -5.747058981234e-02 -7.136666985823e+00 -1.908259299011e+01 +8.285075366659e+01 -1.908259299011e+01 +8.285075366659e+01 -5.734799612364e-02 -7.148307037017e+00
 8.30000000e+00 -5.883779182857e-02 -7.222914435171e+00 -1.897854686601e+01 +8.276255824803e+01 -1.897854686601e+01 +8.276255824803e+01 -5.871465192565e-02 -7.234703597436e+00
 8.40000000e+00 -6.022086806016e-02 -7.309137608496e+00 -1.887578065976e+01 +8.267439221103e+01 -1.887578065976e+01 +8.267439221103e+01 -6.009719658417e-02 -7.321075854632e+00
 8.50000000e+00 -6.161981011586e-02 -7.395336231813e+00 -1.877426442036e+01 +8.258625588811e+01 -1.877426442036e+01 +8.258625588811e+01 -6.149562128387e-02 -7.407423533643e+00
 8.60000000e+00 -6.303460923450e-02 -7.481510030517e+00 -1.867396924728e+01 +8.249814960076e+01 -1.867396924728e+01 +8.249814960076e+01 -6.290991685222e-02 -7.493746358968e+00
 8.70000000e+00 -6.446525629070e-02 -7.567658729467e+00 -1.857486724185e+01 +8.241007366031e+01 -1.857486724185e+01 +8.241007366031e+01 -6.434007376479e-02 -7.580044054640e+00
 8.80000000e+00 -6.591174180043e-02 -7.653782053058e+00 -1.847693146149e+01 +8.232202836873e+01 -1.847693146149e+01 +8.232202836873e+01 -6.578608215096e-02 -7.666316344297e+00
 8.90000000e+00 -6.737405592702e-02 -7.739879725296e+00 -1.838013587652e+01 +8.223401401939e+01 -1.838013587652e+01 +8.223401401939e+01 -6.724793179885e-02 -7.752562951254e+00
 9.00000000e+00 -6.885218848637e-02 -7.825951469866e+00 -1.828445532937e+01 +8.214603089774e+01 -1.828445532937e+01 +8.214603089774e+01 -6.872561216110e-02 -7.838783598565e+00
 9.10000000e+00 -7.034612895290e-02 -7.911997010196e+00 -1.818986549603e+01 +8.205807928192e+01 -1.818986549603e+01 +8.205807928192e+01 -7.021911235986e-02 -7.924978009082e+00
 9.20000000e+00 -7.185586646490e-02 -7.998016069516e+00 -1.809634284961e+01 +8.197015944341e+01 -1.809634284961e+01 +8.197015944341e+01 -7.172842119216e-02 -8.011145905513e+00
 9.30000000e+00 -7.338138983001e-02 -8.084008370919e+00 -1.800386462588e+01 +8.188227164751e+01 -1.800386462589e+01 +8.188227164751e+01 -7.325352713496e-02 -8.097287010475e+00
 9.40000000e+00 -7.492268753061e-02 -8.169973637410e+00 -1.791240879067e+01 +8.179441615389e+01 -1.791240879067e+01 +8.179441615389e+01 -7.479441835050e-02 -8.183401046545e+00
 9.50000000e+00 -7.647974772916e-02 -8.255911591960e+00 -1.782195400891e+01 +8.170659321704e+01 -1.782195400891e+01 +8.170659321704e+01 -7.635108269112e-02 -8.269487736308e+00
 9.60000000e+00 -7.805255827333e-02 -8.341821957554e+00 -1.773247961540e+01 +8.161880308669e+01 -1.773247961540e+01 +8.161880308669e+01 -7.792350770401e-02 -8.355546802401e+00
 9.70000000e+00 -7.964110670115e-02 -8.427704457232e+00 -1.764396558704e+01 +8.153104600823e+01 -1.764396558704e+01 +8.153104600823e+01 -7.951168063639e-02 -8.441577967556e+00
 9.80000000e+00 -8.124538024601e-02 -8.513558814137e+00 -1.755639251643e+01 +8.144332222307e+01 -1.755639251643e+01 +8.144332222307e+01 -8.111558844011e-02 -8.527580954640e+00
 9.90000000e+00 -8.286536584159e-02 -8.599384751555e+00 -1.746974158694e+01 +8.135563196896e+01 -1.746974158694e+01 +8.135563196896e+01 -8.273521777609e-02 -8.613555486693e+00
 1.00000000e+01 -8.450105012669e-02 -8.685181992946e+00 -1.738399454889e+01 +8.126797548033e+01 -1.738399454889e+01 +8.126797548033e+01 -8.437055501936e-02 -8.699501286964e+00
 1.01000000e+01 -8.615241944981e-02 -8.770950261991e+00 -1.729913369701e+01 +8.118035298857e+01 -1.729913369701e+01 +8.118035298857e+01 -8.602158626290e-02 -8.785418078942e+00
 1.02000000e+01 -8.781945987392e-02 -8.856689282615e+00 -1.721514184900e+01 +8.109276472230e+01 -1.721514184900e+01 +8.109276472230e+01 -8.768829732228e-02 -8.871305586395e+00
 1.03000000e+01 -8.950215718084e-02 -8.942398779029e+00 -1.713200232507e+01 +8.100521090759e+01 -1.713200232507e+01 +8.100521090759e+01 -8.937067374016e-02 -8.957163533391e+00
 1.04000000e+01 -9.120049687570e-02 -9.028078475753e+00 -1.704969892854e+01 +8.091769176823e+01 -1.704969892854e+01 +8.091769176823e+01 -9.106870078996e-02 -9.042991644335e+00
 1.05000000e+01 -9.291446419118e-02 -9.113728097649e+00 -1.696821592733e+01 +8.083020752590e+01 -1.696821592733e+01 +8.083020752589e+01 -9.278236348015e-02 -9.128789643991e+00
 1.06000000e+01 -9.464404409174e-02 -9.199347369945e+00 -1.688753803636e+01 +8.074275840037e+01 -1.688753803636e+01 +8.074275840037e+01 -9.451164655825e-02 -9.214557257510e+00
 1.07000000e+01 -9.638922127770e-02 -9.284936018267e+00 -1.680765040071e+01 +8.065534460972e+01 -1.680765040071e+01 +8.065534460972e+01 -9.625653451464e-02 -9.300294210453e+00
 1.08000000e+01 -9.814998018911e-02 -9.370493768656e+00 -1.672853857965e+01 +8.056796637042e+01 -1.672853857965e+01 +8.056796637042e+01 -9.801701158628e-02 -9.386000228816e+00
 1.09000000e+01 -9.992630500994e-02 -9.456020347597e+00 -1.665018853135e+01 +8.048062389754e+01 -1.665018853135e+01 +8.048062389754e+01 -9.979306176041e-02 -9.471675039051e+00
 1.10000000e+01 -1.017181796715e-01 -9.541515482037e+00 -1.657258659827e+01 +8.039331740488e+01 -1.657258659827e+01 +8.039331740488e+01 -1.015846687782e-01 -9.557318368085e+00
 1.11000000e+01 -1.035255878563e-01 -9.626978899410e+00 -1.649571949330e+01 +8.030604710507e+01 -1.649571949331e+01 +8.030604710507e+01 -1.033918161381e-01 -9.642929943343e+00
 1.12000000e+01 -1.053485130019e-01 -9.712410327655e+00 -1.641957428641e+01 +8.021881320970e+01 -1.641957428641e+01 +8.021881320970e+01 -1.052144870993e-01 -9.728509492768e+00
 1.13000000e+01 -1.071869383040e-01 -9.797809495232e+00 -1.634413839195e+01 +8.013161592943e+01 -1.634413839195e+01 +8.013161592943e+01 -1.070526646854e-01 -9.814056744833e+00
 1.14000000e+01 -1.090408467201e-01 -9.883176131146e+00 -1.626939955653e+01 +8.004445547406e+01 -1.626939955653e+01 +8.004445547405e+01 -1.089063316869e-01 -9.899571428563e+00
 1.15000000e+01 -1.109102209729e-01 -9.968509964962e+00 -1.619534584741e+01 +7.995733205264e+01 -1.619534584741e+01 +7.995733205264e+01 -1.107754706650e-01 -9.985053273551e+00
 1.16000000e+01 -1.127950435535e-01 -1.005381072682e+01 -1.612196564135e+01 +7.987024587356e+01 -1.612196564135e+01 +7.987024587356e+01 -1.126600639547e-01 -1.007050200997e+01
 1.17000000e+01 -1.146952967243e-01 -1.013907814744e+01 -1.604924761398e+01 +7.978319714459e+01 -1.604924761398e+01 +7.978319714459e+01 -1.145600936673e-01 -1.015591736860e+01
 1.18000000e+01 -1.166109625227e-01 -1.022431195817e+01 -1.597718072967e+01 +7.969618607295e+01 -1.597718072967e+01 +7.969618607295e+01 -1.164755416937e-01 -1.024129908081e+01
 1.19000000e+01 -1.185420227637e-01 -1.030951189097e+01 -1.590575423170e+01 +7.960921286539e+01 -1.590575423170e+01 +7.960921286539e+01 -1.184063897073e-01 -1.032664687862e+01
 1.20000000e+01 -1.204884590429e-01 -1.039467767842e+01 -1.583495763298e+01 +7.952227772822e+01 -1.583495763298e+01 +7.952227772822e+01 -1.203526191665e-01 -1.041196049468e+01
 1.21000000e+01 -1.224502527393e-01 -1.047980905376e+01 -1.576478070703e+01 +7.943538086739e+01 -1.576478070703e+01 +7.943538086739e+01 -1.223142113181e-01 -1.049723966229e+01
 1.22000000e+01 -1.244273850187e-01 -1.056490575089e+01 -1.569521347947e+01 +7.934852248849e+01 -1.569521347947e+01 +7.934852248849e+01 -1.242911471988e-01 -1.058248411539e+01
 1.23000000e+01 -1.264198368355e-01 -1.064996750438e+01 -1.562624621970e+01 +7.926170279680e+01 -1.562624621970e+01 +7.926170279680e+01 -1.262834076391e-01 -1.066769358864e+01
 1.24000000e+01 -1.284275889362e-01 -1.073499404948e+01 -1.555786943304e+01 +7.917492199736e+01 -1.555786943304e+01 +7.917492199736e+01 -1.282909732650e-01 -1.075286781735e+01
 1.25000000e+01 -1.304506218615e-01 -1.081998512213e+01 -1.549007385314e+01 +7.908818029495e+01 -1.549007385314e+01 +7.908818029495e+01 -1.303138245007e-01 -1.083800653753e+01
 1.26000000e+01 -1.324889159493e-01 -1.090494045898e+01 -1.542285043469e+01 +7.900147789414e+01 -1.542285043469e+01 +7.900147789414e+01 -1.323519415712e-01 -1.092310948590e+01
 1.27000000e+01 -1.345424513368e-01 -1.098985979741e+01 -1.535619034642e+01 +7.891481499933e+01 -1.535619034642e+01 +7.891481499933e+01 -1.344053045044e-01 -1.100817639991e+01
 1.28000000e+01 -1.366112079631e-01 -1.107474287548e+01 -1.529008496437e+01 +7.882819181472e+01 -1.529008496437e+01 +7.882819181472e+01 -1.364738931336e-01 -1.109320701770e+01
 1.29000000e+01 -1.386951655717e-01 -1.115958943203e+01 -1.522452586545e+01 +7.874160854438e+01 -1.522452586545e+01 +7.874160854438e+01 -1.385576870998e-01 -1.117820107818e+01
 1.30000000e+01 -1.407943037127e-01 -1.124439920661e+01 -1.515950482122e+01 +7.865506539224e+01 -1.515950482122e+01 +7.865506539224e+01 -1.406566658539e-01 -1.126315832097e+01
 1.31000000e+01 -1.429086017454e-01 -1.132917193954e+01 -1.509501379189e+01 +7.856856256209e+01 -1.509501379190e+01 +7.856856256209e+01 -1.427708086586e-01 -1.134807848646e+01
 1.32000000e+01 -1.450380388398e-01 -1.141390737190e+01 -1.503104492064e+01 +7.848210025762e+01 -1.503104492064e+01 +7.848210025761e+01 -1.449000945913e-01 -1.143296131580e+01
 1.33000000e+01 -1.471825939796e-01 -1.149860524551e+01 -1.496759052800e+01 +7.839567868239e+01 -1.496759052800e+01 +7.839567868239e+01 -1.470445025450e-01 -1.151780655090e+01
 1.34000000e+01 -1.493422459642e-01 -1.158326530299e+01 -1.490464310660e+01 +7.830929803988e+01 -1.490464310660e+01 +7.830929803988e+01 -1.492040112317e-01 -1.160261393444e+01
 1.35000000e+01 -1.515169734102e-01 -1.166788728775e+01 -1.484219531604e+01 +7.822295853346e+01 -1.484219531604e+01 +7.822295853346e+01 -1.513785991832e-01 -1.168738320988e+01
 1.36000000e+01 -1.537067547543e-01 -1.175247094396e+01 -1.478023997789e+01 +7.813666036640e+01 -1.478023997789e+01 +7.813666036640e+01 -1.535682447539e-01 -1.177211412148e+01
 1.37000000e+01 -1.559115682547e-01 -1.183701601660e+01 -1.471877007103e+01 +7.805040374187e+01 -1.471877007103e+01 +7.805040374187e+01 -1.557729261224e-01 -1.185680641429e+01
 1.38000000e+01 -1.581313919934e-01 -1.192152225147e+01 -1.465777872698e+01 +7.796418886295e+01 -1.465777872699e+01 +7.796418886295e+01 -1.579926212934e-01 -1.194145983415e+01
 1.39000000e+01 -1.603662038783e-01 -1.200598939515e+01 -1.459725922557e+01 +7.787801593263e+01 -1.459725922557e+01 +7.787801593263e+01 -1.602273080997e-01 -1.202607412772e+01
 1.40000000e+01 -1.626159816445e-01 -1.209041719505e+01 -1.453720499060e+01 +7.779188515378e+01 -1.453720499060e+01 +7.779188515378e+01 -1.624769642039e-01 -1.211064904248e+01
 1.41000000e+01 -1.648807028569e-01 -1.217480539941e+01 -1.447760958579e+01 +7.770579672917e+01 -1.447760958579e+01 +7.770579672917e+01 -1.647415671002e-01 -1.219518432670e+01
 1.42000000e+01 -1.671603449115e-01 -1.225915375729e+01 -1.441846671079e+01 +7.761975086147e+01 -1.441846671079e+01 +7.761975086146e+01 -1.670210941162e-01 -1.227967972951e+01
 1.43000000e+01 -1.694548850375e-01 -1.234346201858e+01 -1.435977019739e+01 +7.753374775322e+01 -1.435977019739e+01 +7.753374775322e+01 -1.693155224149e-01 -1.236413500086e+01
 1.44000000e+01 -1.717643002993e-01 -1.242772993402e+01 -1.430151400578e+01 +7.744778760684e+01 -1.430151400578e+01 +7.744778760684e+01 -1.716248289960e-01 -1.244854989154e+01
 1.45000000e+01 -1.740885675976e-01 -1.251195725518e+01 -1.424369222107e+01 +7.736187062464e+01 -1.424369222107e+01 +7.736187062464e+01 -1.739489906976e-01 -1.253292415316e+01
 1.46000000e+01 -1.764276636716e-01 -1.259614373448e+01 -1.418629904974e+01 +7.727599700877e+01 -1.418629904974e+01 +7.727599700877e+01 -1.762879841985e-01 -1.261725753820e+01
 1.47000000e+01 -1.787815651008e-01 -1.268028912522e+01 -1.412932881644e+01 +7.719016696124e+01 -1.412932881644e+01 +7.719016696124e+01 -1.786417860188e-01 -1.270154979999e+01
 1.48000000e+01 -1.811502483064e-01 -1.276439318154e+01 -1.407277596069e+01 +7.710438068391e+01 -1.407277596069e+01 +7.710438068391e+01 -1.810103725226e-01 -1.278580069272e+01
 1.49000000e+01 -1.835336895529e-01 -1.284845565844e+01 -1.401663503381e+01 +7.701863837847e+01 -1.401663503381e+01 +7.701863837847e+01 -1.833937199187e-01 -1.287000997144e+01
 1.50000000e+01 -1.859318649501e-01 -1.293247631181e+01 -1.396090069595e+01 +7.693294024643e+01 -1.396090069595e+01 +7.693294024643e+01 -1.857918042626e-01 -1.295417739205e+01
 1.51000000e+01 -1.883447504543e-01 -1.301645489839e+01 -1.390556771316e+01 +7.684728648915e+01 -1.390556771316e+01 +7.684728648915e+01 -1.882046014583e-01 -1.303830271135e+01
 1.52000000e+01 -1.907723218701e-01 -1.310039117582e+01 -1.385063095460e+01 +7.676167730775e+01 -1.385063095460e+01 +7.676167730775e+01 -1.906320872591e-01 -1.312238568700e+01
 1.53000000e+01 -1.932145548520e-01 -1.318428490261e+01 -1.379608538983e+01 +7.667611290317e+01 -1.379608538983e+01 +7.667611290317e+01 -1.930742372697e-01 -1.320642607754e+01
 1.54000000e+01 -1.956714249057e-01 -1.326813583816e+01 -1.374192608618e+01 +7.659059347613e+01 -1.374192608618e+01 +7.659059347613e+01 -1.955310269476e-01 -1.329042364240e+01
 1.55000000e+01 -1.981429073897e-01 -1.335194374278e+01 -1.368814820623e+01 +7.650511922713e+01 -1.368814820623e+01 +7.650511922713e+01 -1.980024316043e-01 -1.337437814190e+01
 1.56000000e+01 -2.006289775173e-01 -1.343570837764e+01 -1.363474700537e+01 +7.641969035643e+01 -1.363474700537e+01 +7.641969035643e+01 -2.004884264070e-01 -1.345828933726e+01
 1.57000000e+01 -2.031296103573e-01 -1.351942950484e+01 -1.358171782937e+01 +7.633430706402e+01 -1.358171782937e+01 +7.633430706402e+01 -2.029889863801e-01 -1.354215699057e+01
 1.58000000e+01 -2.056447808357e-01 -1.360310688738e+01 -1.352905611214e+01 +7.624896954964e+01 -1.352905611214e+01 +7.624896954964e+01 -2.055040864064e-01 -1.362598086485e+01
 1.59000000e+01 -2.081744637376e-01 -1.368674028915e+01 -1.347675737346e+01 +7.616367801278e+01 -1.347675737346e+01 +7.616367801278e+01 -2.080337012284e-01 -1.370976072401e+01
 1.60000000e+01 -2.107186337082e-01 -1.377032947496e+01 -1.342481721683e+01 +7.607843265261e+01 -1.342481721684e+01 +7.607843265261e+01 -2.105778054502e-01 -1.379349633288e+01
 1.61000000e+01 -2.132772652540e-01 -1.385387421054e+01 -1.337323132742e+01 +7.599323366802e+01 -1.337323132742e+01 +7.599323366802e+01 -2.131363735384e-01 -1.387718745719e+01
 1.62000000e+01 -2.158503327450e-01 -1.393737426255e+01 -1.332199546999e+01 +7.590808125760e+01 -1.332199546999e+01 +7.590808125760e+01 -2.157093798237e-01 -1.396083386359e+01
 1.63000000e+01 -2.184378104153e-01 -1.402082939854e+01 -1.327110548693e+01 +7.582297561959e+01 -1.327110548693e+01 +7.582297561959e+01 -2.182967985022e-01 -1.404443531966e+01
 1.64000000e+01 -2.210396723648e-01 -1.410423938700e+01 -1.322055729641e+01 +7.573791695192e+01 -1.322055729641e+01 +7.573791695192e+01 -2.208986036365e-01 -1.412799159388e+01
 1.65000000e+01 -2.236558925606e-01 -1.418760399737e+01 -1.317034689048e+01 +7.565290545218e+01 -1.317034689048e+01 +7.565290545218e+01 -2.235147691575e-01 -1.421150245568e+01
 1.66000000e+01 -2.262864448382e-01 -1.427092299999e+01 -1.312047033331e+01 +7.556794131759e+01 -1.312047033331e+01 +7.556794131759e+01 -2.261452688653e-01 -1.429496767541e+01
 1.67000000e+01 -2.289313029029e-01 -1.435419616615e+01 -1.307092375943e+01 +7.548302474500e+01 -1.307092375943e+01 +7.548302474500e+01 -2.287900764308e-01 -1.437838702434e+01
 1.68000000e+01 -2.315904403313e-01 -1.443742326807e+01 -1.302170337207e+01 +7.539815593090e+01 -1.302170337207e+01 +7.539815593090e+01 -2.314491653965e-01 -1.446176027469e+01
 1.69000000e+01 -2.342638305722e-01 -1.452060407892e+01 -1.297280544153e+01 +7.531333507136e+01 -1.297280544153e+01 +7.531333507135e+01 -2.341225091786e-01 -1.454508719962e+01
 1.70000000e+01 -2.369514469484e-01 -1.460373837282e+01 -1.292422630356e+01 +7.522856236206e+01 -1.292422630356e+01 +7.522856236206e+01 -2.368100810676e-01 -1.462836757324e+01
 1.71000000e+01 -2.396532626573e-01 -1.468682592482e+01 -1.287596235785e+01 +7.514383799827e+01 -1.287596235785e+01 +7.514383799827e+01 -2.395118542296e-01 -1.471160117057e+01
 1.72000000e+01 -2.423692507731e-01 -1.476986651093e+01 -1.282801006653e+01 +7.505916217484e+01 -1.282801006653e+01 +7.505916217484e+01 -2.422278017078e-01 -1.479478776761e+01
 1.73000000e+01 -2.450993842472e-01 -1.485285990811e+01 -1.278036595271e+01 +7.497453508616e+01 -1.278036595271e+01 +7.497453508616e+01 -2.449578964238e-01 -1.487792714131e+01
 1.74000000e+01 -2.478436359101e-01 -1.493580589428e+01 -1.273302659910e+01 +7.488995692618e+01 -1.273302659910e+01 +7.488995692618e+01 -2.477021111784e-01 -1.496101906955e+01
 1.75000000e+01 -2.506019784722e-01 -1.501870424830e+01 -1.268598864660e+01 +7.480542788840e+01 -1.268598864660e+01 +7.480542788840e+01 -2.504604186534e-01 -1.504406333118e+01
 1.76000000e+01 -2.533743845251e-01 -1.510155475002e+01 -1.263924879299e+01 +7.472094816584e+01 -1.263924879299e+01 +7.472094816584e+01 -2.532327914125e-01 -1.512705970602e+01
 1.77000000e+01 -2.561608265432e-01 -1.518435718022e+01 -1.259280379165e+01 +7.463651795104e+01 -1.259280379165e+01 +7.463651795104e+01 -2.560192019022e-01 -1.521000797483e+01
 1.78000000e+01 -2.589612768846e-01 -1.526711132068e+01 -1.254665045030e+01 +7.455213743604e+01 -1.254665045030e+01 +7.455213743604e+01 -2.588196224537e-01 -1.529290791935e+01
 1.79000000e+01 -2.617757077923e-01 -1.534981695412e+01 -1.250078562975e+01 +7.446780681238e+01 -1.250078562975e+01 +7.446780681238e+01 -2.616340252835e-01 -1.537575932228e+01
 1.80000000e+01 -2.646040913955e-01 -1.543247386424e+01 -1.245520624277e+01 +7.438352627110e+01 -1.245520624277e+01 +7.438352627110e+01 -2.644623824951e-01 -1.545856196728e+01
 1.81000000e+01 -2.674463997108e-01 -1.551508183572e+01 -1.240990925287e+01 +7.429929600270e+01 -1.240990925287e+01 +7.429929600270e+01 -2.673046660795e-01 -1.554131563899e+01
 1.82000000e+01 -2.703026046435e-01 -1.559764065421e+01 -1.236489167324e+01 +7.421511619715e+01 -1.236489167324e+01 +7.421511619715e+01 -2.701608479171e-01 -1.562402012302e+01
 1.83000000e+01 -2.731726779883e-01 -1.568015010632e+01 -1.232015056563e+01 +7.413098704387e+01 -1.232015056563e+01 +7.413098704387e+01 -2.730308997783e-01 -1.570667520596e+01
 1.84000000e+01 -2.760565914313e-01 -1.576260997967e+01 -1.227568303927e+01 +7.404690873174e+01 -1.227568303927e+01 +7.404690873174e+01 -2.759147933251e-01 -1.578928067538e+01
 1.85000000e+01 -2.789543165503e-01 -1.584502006285e+01 -1.223148624990e+01 +7.396288144905e+01 -1.223148624990e+01 +7.396288144905e+01 -2.788125001119e-01 -1.587183631982e+01
 1.86000000e+01 -2.818658248167e-01 -1.592738014541e+01 -1.218755739869e+01 +7.387890538354e+01 -1.218755739869e+01 +7.387890538354e+01 -2.817239915868e-01 -1.595434192881e+01
 1.87000000e+01 -2.847910875960e-01 -1.600969001792e+01 -1.214389373131e+01 +7.379498072236e+01 -1.214389373131e+01 +7.379498072236e+01 -2.846492390929e-01 -1.603679729285e+01
 1.88000000e+01 -2.877300761495e-01 -1.609194947192e+01 -1.210049253699e+01 +7.371110765207e+01 -1.210049253699e+01 +7.371110765207e+01 -2.875882138691e-01 -1.611920220345e+01
 1.89000000e+01 -2.906827616352e-01 -1.617415829994e+01 -1.205735114753e+01 +7.362728635861e+01 -1.205735114753e+01 +7.362728635861e+01 -2.905408870514e-01 -1.620155645309e+01
 1.90000000e+01 -2.936491151089e-01 -1.625631629550e+01 -1.201446693649e+01 +7.354351702732e+01 -1.201446693649e+01 +7.354351702732e+01 -2.935072296742e-01 -1.628385983523e+01
 1.91000000e+01 -2.966291075253e-01 -1.633842325311e+01 -1.197183731823e+01 +7.345979984294e+01 -1.197183731823e+01 +7.345979984294e+01 -2.964872126711e-01 -1.636611214436e+01
 1.92000000e+01 -2.996227097394e-01 -1.642047896829e+01 -1.192945974709e+01 +7.337613498954e+01 -1.192945974709e+01 +7.337613498954e+01 -2.994808068762e-01 -1.644831317591e+01
 1.93000000e+01 -3.026298925073e-01 -1.650248323755e+01 -1.188733171658e+01 +7.329252265059e+01 -1.188733171658e+01 +7.329252265059e+01 -3.024879830253e-01 -1.653046272636e+01
 1.94000000e+01 -3.056506264875e-01 -1.658443585839e+01 -1.184545075852e+01 +7.320896300889e+01 -1.184545075852e+01 +7.320896300889e+01 -3.055087117566e-01 -1.661256059315e+01
 1.95000000e+01 -3.086848822421e-01 -1.666633662930e+01 -1.180381444228e+01 +7.312545624660e+01 -1.180381444229e+01 +7.312545624660e+01 -3.085429636123e-01 -1.669460657473e+01
 1.96000000e+01 -3.117326302375e-01 -1.674818534981e+01 -1.176242037404e+01 +7.304200254521e+01 -1.176242037404e+01 +7.304200254521e+01 -3.115907090396e-01 -1.677660047054e+01
 1.97000000e+01 -3.147938408460e-01 -1.682998182041e+01 -1.172126619595e+01 +7.295860208555e+01 -1.172126619595e+01 +7.295860208555e+01 -3.146519183914e-01 -1.685854208104e+01
 1.98000000e+01 -3.178684843465e-01 -1.691172584261e+01 -1.168034958550e+01 +7.287525504774e+01 -1.168034958550e+01 +7.287525504774e+01 -3.177265619276e-01 -1.694043120769e+01
 1.99000000e+01 -3.209565309259e-01 -1.699341721894e+01 -1.163966825475e+01 +7.279196161127e+01 -1.163966825475e+01 +7.279196161127e+01 -3.208146098167e-01 -1.702226765294e+01
 2.00000000e+01 -3.240579506800e-01 -1.707505575292e+01 -1.159921994963e+01 +7.270872195488e+01 -1.159921994963e+01 +7.270872195488e+01 -3.239160321360e-01 -1.710405122025e+01
