#  GHZ S DB R 50
 1.00000000e-02 -2.572660076335e-07 -9.036154176962e-03 -7.705242873554e+01 +8.999161544282e+01 -7.705242873556e+01 +8.999161544284e+01 -1.659349599261e-07 -9.047440246037e-03
 2.00000000e-02 -5.807306881419e-07 -1.807230675389e-02 -7.103181486692e+01 +8.998328685463e+01 -7.103181486696e+01 +8.998328685444e+01 -4.849783361430e-07 -1.809492696434e-02
 1.00000000e-01 -1.093482317903e-05 -9.036104034222e-02 -5.705237588916e+01 +8.991648425079e+01 -5.705237588915e+01 +8.991648425080e+01 -1.070033325742e-05 -9.047425410556e-02
 2.00000000e-01 -4.326380259953e-05 -1.807190095813e-01 -5.103166660062e+01 +8.983287886539e+01 -5.103166660062e+01 +8.983287886537e+01 -4.259783802958e-05 -1.809456730841e-01
 3.00000000e-01 -9.703611357928e-05 -2.710709060023e-01 -4.750966467001e+01 +8.974911291673e+01 -4.750966467001e+01 +8.974911291673e+01 -9.565864348953e-05 -2.714114667364e-01
 4.00000000e-01 -1.720844025882e-04 -3.614139379299e-01 -4.501065127570e+01 +8.966512454996e+01 -4.501065127570e+01 +8.966512454995e+01 -1.697290385584e-04 -3.618690385248e-01
 5.00000000e-01 -2.681878743779e-04 -4.517456114746e-01 -4.307215724028e+01 +8.958085864179e+01 -4.307215724028e+01 +8.958085864178e+01 -2.646073267978e-04 -4.523160622200e-01
 6.00000000e-01 -3.850871427961e-04 -5.420637772672e-01 -4.148819137136e+01 +8.949627041571e+01 -4.148819137136e+01 +8.949627041569e+01 -3.800566242164e-04 -5.427505242539e-01
 7.00000000e-01 -5.224987767939e-04 -6.323666507791e-01 -4.014887604580e+01 +8.941132684995e+01 -4.014887604580e+01 +8.941132684993e+01 -5.158175637094e-04 -6.331707423228e-01
 8.00000000e-01 -6.801286680142e-04 -7.226528066440e-01 -3.898862774445e+01 +8.932600659095e+01 -3.898862774444e+01 +8.932600659094e+01 -6.716202309241e-04 -7.235753614519e-01
 9.00000000e-01 -8.576833043913e-04 -8.129211521757e-01 -3.796514663067e+01 +8.924029894487e+01 -3.796514663067e+01 +8.924029894485e+01 -8.471944056085e-04 -8.139633315380e-01
 1.00000000e+00 -1.054878431432e-03 -9.031708873892e-01 -3.704955284960e+01 +8.915420232399e+01 -3.704955284959e+01 +8.915420232399e+01 -1.042277554379e-03 -9.043338725022e-01
 1.10000000e+00 -1.271445020238e-03 -9.934014586872e-01 -3.622124914815e+01 +8.906772245120e+01 -3.622124914815e+01 +8.906772245119e+01 -1.256620448136e-03 -9.946864332929e-01
 1.20000000e+00 -1.507132805909e-03 -1.083612512067e+00 -3.546502835892e+01 +8.898087055931e+01 -3.546502835892e+01 +8.898087055929e+01 -1.489990606567e-03 -1.085020649967e+00
 1.30000000e+00 -1.761711860396e-03 -1.173803849913e+00 -3.476934269847e+01 +8.889366174906e+01 -3.476934269847e+01 +8.889366174905e+01 -1.742173961505e-03 -1.175336306526e+00
 1.40000000e+00 -2.034972731582e-03 -1.263975393659e+00 -3.412521632501e+01 +8.880611359658e+01 -3.412521632501e+01 +8.880611359657e+01 -2.012975197317e-03 -1.265633300634e+00
 1.50000000e+00 -2.326725647691e-03 -1.354127153122e+00 -3.352553402155e+01 +8.871824504278e+01 -3.352553402154e+01 +8.871824504277e+01 -2.302217205404e-03 -1.355911615046e+00
 1.60000000e+00 -2.636799196784e-03 -1.444259202316e+00 -3.296455995440e+01 +8.863007555585e+01 -3.296455995439e+01 +8.863007555584e+01 -2.609740011200e-03 -1.446171294672e+00
 1.70000000e+00 -2.965038783640e-03 -1.534371660919e+00 -3.243760261359e+01 +8.854162453333e+01 -3.243760261359e+01 +8.854162453332e+01 -2.935399446493e-03 -1.536412428688e+00
 1.80000000e+00 -3.311305063139e-03 -1.624464680373e+00 -3.194077569201e+01 +8.845291090004e+01 -3.194077569201e+01 +8.845291090003e+01 -3.279065749803e-03 -1.626635136837e+00
 1.90000000e+00 -3.675472465841e-03 -1.714538433539e+00 -3.147082371801e+01 +8.836395285694e+01 -3.147082371801e+01 +8.836395285693e+01 -3.640622206691e-03 -1.716839559085e+00
 2.00000000e+00 -4.057427869841e-03 -1.804593106997e+00 -3.102499247621e+01 +8.827476774045e+01 -3.102499247621e+01 +8.827476774044e+01 -4.019963891680e-03 -1.807025847816e+00
 2.10000000e+00 -4.457069433440e-03 -1.894628895219e+00 -3.060093108285e+01 +8.818537195863e+01 -3.060093108285e+01 +8.818537195862e+01 -4.416996533499e-03 -1.897194161937e+00
 2.20000000e+00 -4.874305578933e-03 -1.984645996051e+00 -3.019661686641e+01 +8.809578097819e+01 -3.019661686641e+01 +8.809578097818e+01 -4.831635508503e-03 -1.987344662367e+00
 2.30000000e+00 -5.309054107122e-03 -2.074644607100e+00 -2.981029696243e+01 +8.800600934296e+01 -2.981029696243e+01 +8.800600934295e+01 -5.263804950917e-03 -2.077477508541e+00
 2.40000000e+00 -5.761241419084e-03 -2.164624922758e+00 -2.944044234893e+01 +8.791607071046e+01 -2.944044234893e+01 +8.791607071045e+01 -5.713436966544e-03 -2.167592855632e+00
 2.50000000e+00 -6.230801822069e-03 -2.254587131675e+00 -2.908571127189e+01 +8.782597789727e+01 -2.908571127189e+01 +8.782597789727e+01 -6.180470933569e-03 -2.257690852325e+00
 2.60000000e+00 -6.717676901152e-03 -2.344531414582e+00 -2.874491984871e+01 +8.773574292767e+01 -2.874491984871e+01 +8.773574292766e+01 -6.664852875958e-03 -2.347771638988e+00
 2.70000000e+00 -7.221814940954e-03 -2.434457942411e+00 -2.841701822288e+01 +8.764537708185e+01 -2.841701822288e+01 +8.764537708184e+01 -7.166534896817e-03 -2.437835346160e+00
 2.80000000e+00 -7.743170387220e-03 -2.524366874662e+00 -2.810107105760e+01 +8.755489094210e+01 -2.810107105760e+01 +8.755489094209e+01 -7.685474661231e-03 -2.527882093300e+00
 2.90000000e+00 -8.281703340408e-03 -2.614258358012e+00 -2.779624145407e+01 +8.746429443596e+01 -2.779624145407e+01 +8.746429443595e+01 -8.221634920088e-03 -2.617911987744e+00
 3.00000000e+00 -8.837379076795e-03 -2.704132525146e+00 -2.750177759751e+01 +8.737359687613e+01 -2.750177759751e+01 +8.737359687613e+01 -8.774983069746e-03 -2.707925123858e+00
 3.10000000e+00 -9.410167594334e-03 -2.793989493807e+00 -2.721700159381e+01 +8.728280699737e+01 -2.721700159381e+01 +8.728280699736e+01 -9.345490741135e-03 -2.797921582352e+00
 3.20000000e+00 -1.000004318161e-02 -2.883829366049e+00 -2.694130007942e+01 +8.719193299046e+01 -2.694130007942e+01 +8.719193299045e+01 -9.933133416489e-03 -2.887901429751e+00
 3.30000000e+00 -1.060698400974e-02 -2.973652227681e+00 -2.667411627678e+01 +8.710098253385e+01 -2.667411627678e+01 +8.710098253385e+01 -1.053789007022e-02 -2.977864718004e+00
 3.40000000e+00 -1.123097174686e-02 -3.063458147897e+00 -2.641494323633e+01 +8.700996282307e+01 -2.641494323633e+01 +8.700996282306e+01 -1.115974283217e-02 -3.067811484213e+00
 3.50000000e+00 -1.187199119523e-02 -3.153247179064e+00 -2.616331805855e+01 +8.691888059832e+01 -2.616331805855e+01 +8.691888059831e+01 -1.179867667242e-02 -3.157741750494e+00
 3.60000000e+00 -1.253002995115e-02 -3.243019356663e+00 -2.591881693028e+01 +8.682774217055e+01 -2.591881693028e+01 +8.682774217054e+01 -1.245467910594e-02 -3.247655523926e+00
 3.70000000e+00 -1.320507808746e-02 -3.332774699350e+00 -2.568105084143e+01 +8.673655344611e+01 -2.568105084143e+01 +8.673655344611e+01 -1.312773991677e-02 -3.337552796608e+00
 3.80000000e+00 -1.389712785854e-02 -3.422513209148e+00 -2.544966187307e+01 +8.664531995020e+01 -2.544966187307e+01 +8.664531995019e+01 -1.381785090069e-02 -3.427433545789e+00
 3.90000000e+00 -1.460617342751e-02 -3.512234871713e+00 -2.522431996788e+01 +8.655404684916e+01 -2.522431996788e+01 +8.655404684916e+01 -1.452500562562e-02 -3.517297734086e+00
 4.00000000e+00 -1.533221061442e-02 -3.601939656704e+00 -2.500472010954e+01 +8.646273897181e+01 -2.500472010954e+01 +8.646273897181e+01 -1.524919920964e-02 -3.607145309755e+00
 4.10000000e+00 -1.607523666558e-02 -3.691627518198e+00 -2.479057985048e+01 +8.637140082978e+01 -2.479057985048e+01 +8.637140082977e+01 -1.599042811539e-02 -3.696976207021e+00
 4.20000000e+00 -1.683525004237e-02 -3.781298395176e+00 -2.458163713767e+01 +8.628003663684e+01 -2.458163713767e+01 +8.628003663683e+01 -1.674868996058e-02 -3.786790346456e+00
 4.30000000e+00 -1.761225022890e-02 -3.870952212032e+00 -2.437764839414e+01 +8.618865032747e+01 -2.437764839414e+01 +8.618865032747e+01 -1.752398334354e-02 -3.876587635391e+00
 4.40000000e+00 -1.840623755738e-02 -3.960588879128e+00 -2.417838682114e+01 +8.609724557442e+01 -2.417838682114e+01 +8.609724557442e+01 -1.831630768348e-02 -3.966367968362e+00
 4.50000000e+00 -1.921721305018e-02 -4.050208293360e+00 -2.398364089107e+01 +8.600582580545e+01 -2.398364089107e+01 +8.600582580545e+01 -1.912566307454e-02 -4.056131227580e+00
 4.60000000e+00 -2.004517827728e-02 -4.139810338736e+00 -2.379321300599e+01 +8.591439421924e+01 -2.379321300599e+01 +8.591439421924e+01 -1.995205015263e-02 -4.145877283408e+00
 4.70000000e+00 -2.089013522803e-02 -4.229394886966e+00 -2.360691830043e+01 +8.582295380046e+01 -2.360691830043e+01 +8.582295380045e+01 -2.079546997475e-02 -4.235605994862e+00
 4.80000000e+00 -2.175208619640e-02 -4.318961798045e+00 -2.342458357010e+01 +8.573150733398e+01 -2.342458357010e+01 +8.573150733398e+01 -2.165592390986e-02 -4.325317210110e+00
 4.90000000e+00 -2.263103367822e-02 -4.408510920835e+00 -2.324604631113e+01 +8.564005741839e+01 -2.324604631113e+01 +8.564005741839e+01 -2.253341354015e-02 -4.415010766976e+00
 5.00000000e+00 -2.352698027968e-02 -4.498042093635e+00 -2.307115385622e+01 +8.554860647864e+01 -2.307115385622e+01 +8.554860647864e+01 -2.342794057249e-02 -4.504686493438e+00
 5.10000000e+00 -2.443992863611e-02 -4.587555144744e+00 -2.289976259637e+01 +8.545715677803e+01 -2.289976259637e+01 +8.545715677802e+01 -2.433950675920e-02 -4.594344208123e+00
 5.20000000e+00 -2.536988134007e-02 -4.677049893001e+00 -2.273173727803e+01 +8.536571042938e+01 -2.273173727803e+01 +8.536571042937e+01 -2.526811382736e-02 -4.683983720798e+00
 5.30000000e+00 -2.631684087776e-02 -4.766526148316e+00 -2.256695036730e+01 +8.527426940563e+01 -2.256695036730e+01 +8.527426940563e+01 -2.621376341522e-02 -4.773604832838e+00
 5.40000000e+00 -2.728080957329e-02 -4.855983712180e+00 -2.240528147335e+01 +8.518283554968e+01 -2.240528147335e+01 +8.518283554968e+01 -2.717645701750e-02 -4.863207337698e+00
 5.50000000e+00 -2.826178953973e-02 -4.945422378156e+00 -2.224661682478e+01 +8.509141058365e+01 -2.224661682478e+01 +8.509141058365e+01 -2.815619593524e-02 -4.952791021359e+00
 5.60000000e+00 -2.925978263651e-02 -5.034841932348e+00 -2.209084879314e+01 +8.499999611751e+01 -2.209084879314e+01 +8.499999611751e+01 -2.915298123357e-02 -5.042355662762e+00
 5.70000000e+00 -3.027479043243e-02 -5.124242153857e+00 -2.193787545853e+01 +8.490859365717e+01 -2.193787545853e+01 +8.490859365716e+01 -3.016681370332e-02 -5.131901034230e+00
 5.80000000e+00 -3.130681417366e-02 -5.213622815207e+00 -2.178760021296e+01 +8.481720461197e+01 -2.178760021296e+01 +8.481720461197e+01 -3.119769382889e-02 -5.221426901871e+00
 5.90000000e+00 -3.235585475632e-02 -5.302983682762e+00 -2.163993139757e+01 +8.472583030177e+01 -2.163993139757e+01 +8.472583030177e+01 -3.224562175985e-02 -5.310933025962e+00
 6.00000000e+00 -3.342191270323e-02 -5.392324517115e+00 -2.149478197033e+01 +8.463447196344e+01 -2.149478197033e+01 +8.463447196344e+01 -3.331059728674e-02 -5.400419161324e+00
 6.10000000e+00 -3.450498814410e-02 -5.481645073457e+00 -2.135206920113e+01 +8.454313075695e+01 -2.135206920113e+01 +8.454313075695e+01 -3.439261982110e-02 -5.489885057669e+00
 6.20000000e+00 -3.560508079910e-02 -5.570945101939e+00 -2.121171439170e+01 +8.445180777107e+01 -2.121171439170e+01 +8.445180777107e+01 -3.549168837769e-02 -5.579330459942e+00
 6.30000000e+00 -3.672218996522e-02 -5.660224348001e+00 -2.107364261782e+01 +8.436050402858e+01 -2.107364261782e+01 +8.436050402857e+01 -3.660780156073e-02 -5.668755108636e+00
 6.40000000e+00 -3.785631450538e-02 -5.749482552690e+00 -2.093778249190e+01 +8.426922049119e+01 -2.093778249190e+01 +8.426922049119e+01 -3.774095755202e-02 -5.758158740103e+00
 6.50000000e+00 -3.900745283950e-02 -5.838719452964e+00 -2.080406594387e+01 +8.417795806409e+01 -2.080406594387e+01 +8.417795806409e+01 -3.889115410219e-02 -5.847541086837e+00
 6.60000000e+00 -4.017560293787e-02 -5.927934781976e+00 -2.067242801882e+01 +8.408671760016e+01 -2.067242801882e+01 +8.408671760016e+01 -4.005838852284e-02 -5.936901877751e+00
 6.70000000e+00 -4.136076231626e-02 -6.017128269341e+00 -2.054280668980e+01 +8.399549990386e+01 -2.054280668980e+01 +8.399549990386e+01 -4.124265768184e-02 -6.026240838434e+00
 6.80000000e+00 -4.256292803246e-02 -6.106299641391e+00 -2.041514268453e+01 +8.390430573489e+01 -2.041514268453e+01 +8.390430573489e+01 -4.244395799951e-02 -6.115557691399e+00
 6.90000000e+00 -4.378209668427e-02 -6.195448621417e+00 -2.028937932468e+01 +8.381313581152e+01 -2.028937932468e+01 +8.381313581151e+01 -4.366228544627e-02 -6.204852156310e+00
 7.00000000e+00 -4.501826440880e-02 -6.284574929891e+00 -2.016546237670e+01 +8.372199081374e+01 -2.016546237670e+01 +8.372199081373e+01 -4.489763554180e-02 -6.294123950208e+00
 7.10000000e+00 -4.627142688268e-02 -6.373678284686e+00 -2.004333991331e+01 +8.363087138614e+01 -2.004333991331e+01 +8.363087138614e+01 -4.615000335522e-02 -6.383372787711e+00
 7.20000000e+00 -4.754157932331e-02 -6.462758401272e+00 -1.992296218450e+01 +8.353977814058e+01 -1.992296218450e+01 +8.353977814058e+01 -4.741938350613e-02 -6.472598381210e+00
 7.30000000e+00 -4.882871649085e-02 -6.551814992910e+00 -1.980428149760e+01 +8.344871165869e+01 -1.980428149760e+01 +8.344871165869e+01 -4.870577016671e-02 -6.561800441057e+00
 7.40000000e+00 -5.013283269092e-02 -6.640847770829e+00 -1.968725210534e+01 +8.335767249415e+01 -1.968725210534e+01 +8.335767249414e+01 -5.000915706423e-02 -6.650978675732e+00
 7.50000000e+00 -5.145392177793e-02 -6.729856444394e+00 -1.957183010152e+01 +8.326666117480e+01 -1.957183010152e+01 +8.326666117480e+01 -5.132953748453e-02 -6.740132792011e+00
 7.60000000e+00 -5.279197715880e-02 -6.818840721270e+00 -1.945797332354e+01 +8.317567820469e+01 -1.945797332354e+01 +8.317567820468e+01 -5.266690427568e-02 -6.829262495116e+00
 7.70000000e+00 -5.414699179726e-02 -6.907800307565e+00 -1.934564126127e+01 +8.308472406578e+01 -1.934564126127e+01 +8.308472406578e+01 -5.402124985241e-02 -6.918367488862e+00
 7.80000000e+00 -5.551895821847e-02 -6.996734907979e+00 -1.923479497185e+01 +8.299379921976e+01 -1.923479497185e+01 +8.299379921976e+01 -5.539256620071e-02 -7.007447475792e+00
 7.90000000e+00 -5.690786851390e-02 -7.085644225930e+00 -1.912539699985e+01 +8.290290410951e+01 -1.912539699985e+01 +8.290290410951e+01 -5.678084488293e-02 -7.096502157304e+00
 8.00000000e+00 -5.831371434651e-02 -7.174527963686e+00 -1.901741130251e+01 +8.281203916060e+01 -1.901741130251e+01 +8.281203916060e+01 -5.818607704262e-02 -7.185531233773e+00
 8.10000000e+00 -5.973648695603e-02 -7.263385822477e+00 -1.891080317954e+01 +8.272120478262e+01 -1.891080317954e+01 +8.272120478262e+01 -5.960825341043e-02 -7.274534404664e+00
 8.20000000e+00 -6.117617716463e-02 -7.352217502614e+00 -1.880553920729e+01 +8.263040137040e+01 -1.880553920729e+01 +8.263040137040e+01 -6.104736430941e-02 -7.363511368637e+00
 8.30000000e+00 -6.263277538241e-02 -7.441022703585e+00 -1.870158717690e+01 +8.253962930517e+01 -1.870158717690e+01 +8.253962930517e+01 -6.250339966083e-02 -7.452461823652e+00
 8.40000000e+00 -6.410627161322e-02 -7.529801124163e+00 -1.859891603608e+01 +8.244888895563e+01 -1.859891603608e+01 +8.244888895563e+01 -6.397634898977e-02 -7.541385467056e+00
 8.50000000e+00 -6.559665546040e-02 -7.618552462492e+00 -1.849749583442e+01 +8.235818067892e+01 -1.849749583442e+01 +8.235818067892e+01 -6.546620143128e-02 -7.630281995677e+00
 8.60000000e+00 -6.710391613269e-02 -7.707276416180e+00 -1.839729767184e+01 +8.226750482150e+01 -1.839729767184e+01 +8.226750482150e+01 -6.697294573597e-02 -7.719151105908e+00
 8.70000000e+00 -6.862804244997e-02 -7.795972682381e+00 -1.829829365006e+01 +8.217686172003e+01 -1.829829365006e+01 +8.217686172003e+01 -6.849657027602e-02 -7.807992493781e+00
 8.80000000e+00 -7.016902284917e-02 -7.884640957869e+00 -1.820045682675e+01 +8.208625170212e+01 -1.820045682675e+01 +8.208625170212e+01 -7.003706305098e-02 -7.896805855046e+00
 8.90000000e+00 -7.172684539010e-02 -7.973280939120e+00 -1.810376117243e+01 +8.199567508706e+01 -1.810376117243e+01 +8.199567508706e+01 -7.159441169347e-02 -7.985590885237e+00
 9.00000000e+00 -7.330149776111e-02 -8.061892322372e+00 -1.800818152957e+01 +8.190513218647e+01 -1.800818152957e+01 +8.190513218647e+01 -7.316860347536e-02 -8.074347279739e+00
 9.10000000e+00 -7.489296728498e-02 -8.150474803699e+00 -1.791369357415e+01 +8.181462330491e+01 -1.791369357415e+01 +8.181462330491e+01 -7.475962531297e-02 -8.163074733851e+00
 9.20000000e+00 -7.650124092447e-02 -8.239028079070e+00 -1.782027377915e+01 +8.172414874046e+01 -1.782027377915e+01 +8.172414874045e+01 -7.636746377307e-02 -8.251772942841e+00
 9.30000000e+00 -7.812630528802e-02 -8.327551844404e+00 -1.772789938015e+01 +8.163370878520e+01 -1.772789938015e+01 +8.163370878520e+01 -7.799210507823e-02 -8.340441602004e+00
 9.40000000e+00 -7.976814663519e-02 -8.416045795632e+00 -1.763654834266e+01 +8.154330372578e+01 -1.763654834266e+01 +8.154330372578e+01 -7.963353511259e-02 -8.429080406711e+00
 9.50000000e+00 -8.142675088219e-02 -8.504509628744e+00 -1.754619933122e+01 +8.145293384375e+01 -1.754619933122e+01 +8.145293384375e+01 -8.129173942691e-02 -8.517689052459e+00
 9.60000000e+00 -8.310210360715e-02 -8.592943039840e+00 -1.745683168017e+01 +8.136259941606e+01 -1.745683168017e+01 +8.136259941606e+01 -8.296670324388e-02 -8.606267234917e+00
 9.70000000e+00 -8.479419005551e-02 -8.681345725179e+00 -1.736842536581e+01 +8.127230071540e+01 -1.736842536581e+01 +8.127230071540e+01 -8.465841146369e-02 -8.694814649970e+00
 9.80000000e+00 -8.650299514502e-02 -8.769717381219e+00 -1.728096098013e+01 +8.118203801054e+01 -1.728096098013e+01 +8.118203801054e+01 -8.636684866871e-02 -8.783330993755e+00
 9.90000000e+00 -8.822850347106e-02 -8.858057704662e+00 -1.719441970573e+01 +8.109181156670e+01 -1.719441970573e+01 +8.109181156670e+01 -8.809199912857e-02 -8.871815962709e+00
 1.00000000e+01 -8.997069931142e-02 -8.946366392491e+00 -1.710878329216e+01 +8.100162164577e+01 -1.710878329216e+01 +8.100162164577e+01 -8.983384680523e-02 -8.960269253595e+00
 1.01000000e+01 -9.172956663126e-02 -9.034643142011e+00 -1.702403403324e+01 +8.091146850666e+01 -1.702403403324e+01 +8.091146850666e+01 -9.159237535739e-02 -9.048690563544e+00
 1.02000000e+01 -9.350508908785e-02 -9.122887650880e+00 -1.694015474571e+01 +8.082135240551e+01 -1.694015474571e+01 +8.082135240551e+01 -9.336756814546e-02 -9.137079590083e+00
 1.03000000e+01 -9.529725003533e-02 -9.211099617146e+00 -1.685712874873e+01 +8.073127359592e+01 -1.685712874873e+01 +8.073127359592e+01 -9.515940823606e-02 -9.225436031168e+00
 1.04000000e+01 -9.710603252928e-02 -9.299278739276e+00 -1.677493984451e+01 +8.064123232918e+01 -1.677493984451e+01 +8.064123232918e+01 -9.696787840628e-02 -9.313759585213e+00
 1.05000000e+01 -9.893141933107e-02 -9.387424716190e+00 -1.669357229980e+01 +8.055122885446e+01 -1.669357229980e+01 +8.055122885446e+01 -9.879296114810e-02 -9.402049951118e+00
 1.06000000e+01 -1.007733929124e-01 -9.475537247285e+00 -1.661301082825e+01 +8.046126341898e+01 -1.661301082825e+01 +8.046126341898e+01 -1.006346386727e-01 -9.490306828292e+00
 1.07000000e+01 -1.026319354595e-01 -9.563616032466e+00 -1.653324057363e+01 +8.037133626819e+01 -1.653324057363e+01 +8.037133626819e+01 -1.024928929146e-01 -9.578529916682e+00
 1.08000000e+01 -1.045070288774e-01 -9.651660772170e+00 -1.645424709383e+01 +8.028144764590e+01 -1.645424709383e+01 +8.028144764590e+01 -1.043677055356e-01 -9.666718916793e+00
 1.09000000e+01 -1.063986547939e-01 -9.739671167388e+00 -1.637601634556e+01 +8.019159779446e+01 -1.637601634556e+01 +8.019159779446e+01 -1.062590579287e-01 -9.754873529713e+00
 1.10000000e+01 -1.083067945637e-01 -9.827646919694e+00 -1.629853466977e+01 +8.010178695483e+01 -1.629853466977e+01 +8.010178695483e+01 -1.081669312220e-01 -9.842993457132e+00
 1.11000000e+01 -1.102314292720e-01 -9.915587731262e+00 -1.622178877778e+01 +8.001201536674e+01 -1.622178877778e+01 +8.001201536674e+01 -1.100913062823e-01 -9.931078401364e+00
 1.12000000e+01 -1.121725397390e-01 -1.000349330489e+01 -1.614576573791e+01 +7.992228326878e+01 -1.614576573791e+01 +7.992228326878e+01 -1.120321637190e-01 -1.001912806536e+01
 1.13000000e+01 -1.141301065227e-01 -1.009136334402e+01 -1.607045296285e+01 +7.983259089850e+01 -1.607045296285e+01 +7.983259089850e+01 -1.139894838876e-01 -1.010714215275e+01
 1.14000000e+01 -1.161041099234e-01 -1.017919755275e+01 -1.599583819746e+01 +7.974293849249e+01 -1.599583819746e+01 +7.974293849249e+01 -1.159632468927e-01 -1.019512036780e+01
 1.15000000e+01 -1.180945299866e-01 -1.026699563587e+01 -1.592190950718e+01 +7.965332628648e+01 -1.592190950718e+01 +7.965332628648e+01 -1.179534325919e-01 -1.028306241553e+01
 1.16000000e+01 -1.201013465070e-01 -1.035475729886e+01 -1.584865526694e+01 +7.956375451538e+01 -1.584865526694e+01 +7.956375451538e+01 -1.199600205994e-01 -1.037096800161e+01
 1.17000000e+01 -1.221245390316e-01 -1.044248224790e+01 -1.577606415047e+01 +7.947422341339e+01 -1.577606415047e+01 +7.947422341339e+01 -1.219829902879e-01 -1.045883683247e+01
 1.18000000e+01 -1.241640868627e-01 -1.053017018992e+01 -1.570412512017e+01 +7.938473321401e+01 -1.570412512017e+01 +7.938473321401e+01 -1.240223207934e-01 -1.054666861527e+01
 1.19000000e+01 -1.262199690622e-01 -1.061782083260e+01 -1.563282741734e+01 +7.929528415014e+01 -1.563282741734e+01 +7.929528415014e+01 -1.260779910169e-01 -1.063446305793e+01
 1.20000000e+01 -1.282921644535e-01 -1.070543388436e+01 -1.556216055283e+01 +7.920587645410e+01 -1.556216055283e+01 +7.920587645410e+01 -1.281499796283e-01 -1.072221986912e+01
 1.21000000e+01 -1.303806516254e-01 -1.079300905439e+01 -1.549211429808e+01 +7.911651035767e+01 -1.549211429808e+01 +7.911651035767e+01 -1.302382650688e-01 -1.080993875829e+01
 1.22000000e+01 -1.324854089348e-01 -1.088054605268e+01 -1.542267867657e+01 +7.902718609216e+01 -1.542267867657e+01 +7.902718609216e+01 -1.323428255540e-01 -1.089761943570e+01
 1.23000000e+01 -1.346064145101e-01 -1.096804459003e+01 -1.535384395552e+01 +7.893790388843e+01 -1.535384395552e+01 +7.893790388843e+01 -1.344636390765e-01 -1.098526161239e+01
 1.24000000e+01 -1.367436462532e-01 -1.105550437801e+01 -1.528560063804e+01 +7.884866397688e+01 -1.528560063804e+01 +7.884866397688e+01 -1.366006834087e-01 -1.107286500022e+01
 1.25000000e+01 -1.388970818433e-01 -1.114292512905e+01 -1.521793945552e+01 +7.875946658754e+01 -1.521793945552e+01 +7.875946658754e+01 -1.387539361057e-01 -1.116042931187e+01
 1.26000000e+01 -1.410666987391e-01 -1.123030655639e+01 -1.515085136035e+01 +7.867031195008e+01 -1.515085136035e+01 +7.867031195008e+01 -1.409233745073e-01 -1.124795426086e+01
 1.27000000e+01 -1.432524741818e-01 -1.131764837414e+01 -1.508432751891e+01 +7.858120029379e+01 -1.508432751891e+01 +7.858120029379e+01 -1.431089757413e-01 -1.133543956156e+01
 1.28000000e+01 -1.454543851973e-01 -1.140495029723e+01 -1.501835930490e+01 +7.849213184764e+01 -1.501835930490e+01 +7.849213184764e+01 -1.453107167252e-01 -1.142288492916e+01
 1.29000000e+01 -1.476724085996e-01 -1.149221204147e+01 -1.495293829281e+01 +7.840310684027e+01 -1.495293829281e+01 +7.840310684027e+01 -1.475285741693e-01 -1.151029007975e+01
 1.30000000e+01 -1.499065209923e-01 -1.157943332356e+01 -1.488805625174e+01 +7.831412550004e+01 -1.488805625174e+01 +7.831412550004e+01 -1.497625245787e-01 -1.159765473027e+01
 1.31000000e+01 -1.521566987722e-01 -1.166661386104e+01 -1.482370513946e+01 +7.822518805499e+01 -1.482370513946e+01 +7.822518805499e+01 -1.520125442556e-01 -1.168497859853e+01
 1.32000000e+01 -1.544229181306e-01 -1.175375337239e+01 -1.475987709662e+01 +7.813629473288e+01 -1.475987709662e+01 +7.813629473288e+01 -1.542786093019e-01 -1.177226140325e+01
 1.33000000e+01 -1.567051550567e-01 -1.184085157694e+01 -1.469656444122e+01 +7.804744576120e+01 -1.469656444122e+01 +7.804744576120e+01 -1.565606956212e-01 -1.185950286403e+01
 1.34000000e+01 -1.590033853395e-01 -1.192790819497e+01 -1.463375966333e+01 +7.795864136715e+01 -1.463375966333e+01 +7.795864136715e+01 -1.588587789209e-01 -1.194670270137e+01
 1.35000000e+01 -1.613175845698e-01 -1.201492294765e+01 -1.457145541994e+01 +7.786988177766e+01 -1.457145541994e+01 +7.786988177766e+01 -1.611728347144e-01 -1.203386063668e+01
 1.36000000e+01 -1.636477281430e-01 -1.210189555709e+01 -1.450964453002e+01 +7.778116721942e+01 -1.450964453002e+01 +7.778116721942e+01 -1.635028383235e-01 -1.212097639230e+01
 1.37000000e+01 -1.659937912612e-01 -1.218882574630e+01 -1.444831996976e+01 +7.769249791881e+01 -1.444831996976e+01 +7.769249791881e+01 -1.658487648800e-01 -1.220804969148e+01
 1.38000000e+01 -1.683557489349e-01 -1.227571323925e+01 -1.438747486805e+01 +7.760387410197e+01 -1.438747486805e+01 +7.760387410197e+01 -1.682105893283e-01 -1.229508025839e+01
 1.39000000e+01 -1.707335759859e-01 -1.236255776086e+01 -1.432710250197e+01 +7.751529599476e+01 -1.432710250197e+01 +7.751529599476e+01 -1.705882864268e-01 -1.238206781816e+01
 1.40000000e+01 -1.731272470485e-01 -1.244935903699e+01 -1.426719629261e+01 +7.742676382277e+01 -1.426719629261e+01 +7.742676382277e+01 -1.729818307500e-01 -1.246901209686e+01
 1.41000000e+01 -1.755367365725e-01 -1.253611679444e+01 -1.420774980094e+01 +7.733827781131e+01 -1.420774980094e+01 +7.733827781131e+01 -1.753911966908e-01 -1.255591282148e+01
 1.42000000e+01 -1.779620188244e-01 -1.262283076101e+01 -1.414875672383e+01 +7.724983818541e+01 -1.414875672383e+01 +7.724983818540e+01 -1.778163584620e-01 -1.264276972000e+01
 1.43000000e+01 -1.804030678900e-01 -1.270950066543e+01 -1.409021089027e+01 +7.716144516981e+01 -1.409021089027e+01 +7.716144516981e+01 -1.802572900983e-01 -1.272958252134e+01
 1.44000000e+01 -1.828598576760e-01 -1.279612623744e+01 -1.403210625764e+01 +7.707309898897e+01 -1.403210625764e+01 +7.707309898897e+01 -1.827139654581e-01 -1.281635095539e+01
 1.45000000e+01 -1.853323619119e-01 -1.288270720772e+01 -1.397443690818e+01 +7.698479986704e+01 -1.397443690818e+01 +7.698479986704e+01 -1.851863582252e-01 -1.290307475303e+01
 1.46000000e+01 -1.878205541523e-01 -1.296924330798e+01 -1.391719704553e+01 +7.689654802788e+01 -1.391719704553e+01 +7.689654802788e+01 -1.876744419111e-01 -1.298975364608e+01
 1.47000000e+01 -1.903244077782e-01 -1.305573427089e+01 -1.386038099144e+01 +7.680834369501e+01 -1.386038099144e+01 +7.680834369501e+01 -1.901781898558e-01 -1.307638736737e+01
 1.48000000e+01 -1.928438959993e-01 -1.314217983013e+01 -1.380398318254e+01 +7.672018709165e+01 -1.380398318254e+01 +7.672018709165e+01 -1.926975752304e-01 -1.316297565071e+01
 1.49000000e+01 -1.953789918554e-01 -1.322857972037e+01 -1.374799816722e+01 +7.663207844069e+01 -1.374799816722e+01 +7.663207844069e+01 -1.952325710384e-01 -1.324951823091e+01
 1.50000000e+01 -1.979296682188e-01 -1.331493367730e+01 -1.369242060269e+01 +7.654401796468e+01 -1.369242060269e+01 +7.654401796468e+01 -1.977831501173e-01 -1.333601484376e+01
 1.51000000e+01 -2.004958977953e-01 -1.340124143761e+01 -1.363724525204e+01 +7.645600588581e+01 -1.363724525204e+01 +7.645600588581e+01 -2.003492851407e-01 -1.342246522606e+01
 1.52000000e+01 -2.030776531265e-01 -1.348750273902e+01 -1.358246698145e+01 +7.636804242592e+01 -1.358246698145e+01 +7.636804242592e+01 -2.029309486193e-01 -1.350886911564e+01
 1.53000000e+01 -2.056749065913e-01 -1.357371732025e+01 -1.352808075749e+01 +7.628012780649e+01 -1.352808075749e+01 +7.628012780649e+01 -2.055281129030e-01 -1.359522625130e+01
 1.54000000e+01 -2.082876304074e-01 -1.365988492106e+01 -1.347408164447e+01 +7.619226224862e+01 -1.347408164447e+01 +7.619226224862e+01 -2.081407501821e-01 -1.368153637288e+01
 1.55000000e+01 -2.109157966334e-01 -1.374600528224e+01 -1.342046480197e+01 +7.610444597302e+01 -1.342046480197e+01 +7.610444597302e+01 -2.107688324896e-01 -1.376779922124e+01
 1.56000000e+01 -2.135593771703e-01 -1.383207814560e+01 -1.336722548230e+01 +7.601667920000e+01 -1.336722548230e+01 +7.601667920000e+01 -2.134123317019e-01 -1.385401453826e+01
 1.57000000e+01 -2.162183437626e-01 -1.391810325400e+01 -1.331435902820e+01 +7.592896214947e+01 -1.331435902820e+01 +7.592896214947e+01 -2.160712195406e-01 -1.394018206685e+01
 1.58000000e+01 -2.188926680008e-01 -1.400408035133e+01 -1.326186087049e+01 +7.584129504092e+01 -1.326186087049e+01 +7.584129504092e+01 -2.187454675745e-01 -1.402630155095e+01
 1.59000000e+01 -2.215823213223e-01 -1.409000918255e+01 -1.320972652586e+01 +7.575367809340e+01 -1.320972652586e+01 +7.575367809340e+01 -2.214350472205e-01 -1.411237273555e+01
 1.60000000e+01 -2.242872750133e-01 -1.417588949364e+01 -1.315795159474e+01 +7.566611152553e+01 -1.315795159474e+01 +7.566611152553e+01 -2.241399297453e-01 -1.419839536665e+01
 1.61000000e+01 -2.270075002103e-01 -1.426172103164e+01 -1.310653175915e+01 +7.557859555549e+01 -1.310653175915e+01 +7.557859555549e+01 -2.268600862671e-01 -1.428436919134e+01
 1.62000000e+01 -2.297429679015e-01 -1.434750354467e+01 -1.305546278072e+01 +7.549113040097e+01 -1.305546278072e+01 +7.549113040097e+01 -2.295954877568e-01 -1.437029395772e+01
 1.63000000e+01 -2.324936489284e-01 -1.443323678188e+01 -1.300474049872e+01 +7.540371627921e+01 -1.300474049872e+01 +7.540371627921e+01 -2.323461050394e-01 -1.445616941495e+01
 1.64000000e+01 -2.352595139876e-01 -1.451892049350e+01 -1.295436082815e+01 +7.531635340697e+01 -1.295436082815e+01 +7.531635340697e+01 -2.351119087958e-01 -1.454199531327e+01
 1.65000000e+01 -2.380405336317e-01 -1.460455443082e+01 -1.290431975790e+01 +7.522904200049e+01 -1.290431975790e+01 +7.522904200049e+01 -2.378928695639e-01 -1.462777140396e+01
 1.66000000e+01 -2.408366782713e-01 -1.469013834622e+01 -1.285461334894e+01 +7.514178227552e+01 -1.285461334894e+01 +7.514178227552e+01 -2.406889577403e-01 -1.471349743936e+01
 1.67000000e+01 -2.436479181763e-01 -1.477567199313e+01 -1.280523773263e+01 +7.505457444731e+01 -1.280523773263e+01 +7.505457444731e+01 -2.435001435811e-01 -1.479917317288e+01
 1.68000000e+01 -2.464742234773e-01 -1.486115512606e+01 -1.275618910898e+01 +7.496741873055e+01 -1.275618910898e+01 +7.496741873055e+01 -2.463263972042e-01 -1.488479835901e+01
 1.69000000e+01 -2.493155641669e-01 -1.494658750063e+01 -1.270746374507e+01 +7.488031533941e+01 -1.270746374507e+01 +7.488031533941e+01 -2.491676885901e-01 -1.497037275330e+01
 1.70000000e+01 -2.521719101017e-01 -1.503196887350e+01 -1.265905797342e+01 +7.479326448752e+01 -1.265905797342e+01 +7.479326448752e+01 -2.520239875833e-01 -1.505589611239e+01
 1.71000000e+01 -2.550432310029e-01 -1.511729900245e+01 -1.261096819049e+01 +7.470626638794e+01 -1.261096819049e+01 +7.470626638794e+01 -2.548952638939e-01 -1.514136819400e+01
 1.72000000e+01 -2.579294964585e-01 -1.520257764635e+01 -1.256319085516e+01 +7.461932125315e+01 -1.256319085516e+01 +7.461932125315e+01 -2.577814870988e-01 -1.522678875692e+01
 1.73000000e+01 -2.608306759242e-01 -1.528780456513e+01 -1.251572248727e+01 +7.453242929506e+01 -1.251572248727e+01 +7.453242929506e+01 -2.606826266431e-01 -1.531215756104e+01
 1.74000000e+01 -2.637467387247e-01 -1.537297951986e+01 -1.246855966625e+01 +7.444559072499e+01 -1.246855966625e+01 +7.444559072499e+01 -2.635986518413e-01 -1.539747436732e+01
 1.75000000e+01 -2.666776540558e-01 -1.545810227267e+01 -1.242169902972e+01 +7.435880575365e+01 -1.242169902972e+01 +7.435880575365e+01 -2.665295318792e-01 -1.548273893785e+01
 1.76000000e+01 -2.696233909848e-01 -1.554317258683e+01 -1.237513727218e+01 +7.427207459116e+01 -1.237513727218e+01 +7.427207459116e+01 -2.694752358142e-01 -1.556795103577e+01
 1.77000000e+01 -2.725839184527e-01 -1.562819022667e+01 -1.232887114370e+01 +7.418539744698e+01 -1.232887114370e+01 +7.418539744698e+01 -2.724357325778e-01 -1.565311042536e+01
 1.78000000e+01 -2.755592052750e-01 -1.571315495766e+01 -1.228289744866e+01 +7.409877452997e+01 -1.228289744866e+01 +7.409877452997e+01 -2.754109909762e-01 -1.573821687198e+01
 1.79000000e+01 -2.785492201433e-01 -1.579806654638e+01 -1.223721304458e+01 +7.401220604834e+01 -1.223721304458e+01 +7.401220604834e+01 -2.784009796916e-01 -1.582327014209e+01
 1.80000000e+01 -2.815539316265e-01 -1.588292476049e+01 -1.219181484086e+01 +7.392569220963e+01 -1.219181484086e+01 +7.392569220963e+01 -2.814056672838e-01 -1.590827000326e+01
 1.81000000e+01 -2.845733081724e-01 -1.596772936880e+01 -1.214669979770e+01 +7.383923322073e+01 -1.214669979770e+01 +7.383923322073e+01 -2.844250221914e-01 -1.599321622419e+01
 1.82000000e+01 -2.876073181088e-01 -1.605248014123e+01 -1.210186492491e+01 +7.375282928787e+01 -1.210186492491e+01 +7.375282928787e+01 -2.874590127331e-01 -1.607810857467e+01
 1.83000000e+01 -2.906559296445e-01 -1.613717684879e+01 -1.205730728088e+01 +7.366648061658e+01 -1.205730728088e+01 +7.366648061658e+01 -2.905076071088e-01 -1.616294682561e+01
 1.84000000e+01 -2.937191108715e-01 -1.622181926366e+01 -1.201302397149e+01 +7.358018741171e+01 -1.201302397149e+01 +7.358018741170e+01 -2.935707734013e-01 -1.624773074904e+01
 1.85000000e+01 -2.967968297654e-01 -1.630640715910e+01 -1.196901214907e+01 +7.349394987738e+01 -1.196901214907e+01 +7.349394987738e+01 -2.966484795773e-01 -1.633246011811e+01
 1.86000000e+01 -2.998890541872e-01 -1.639094030952e+01 -1.192526901141e+01 +7.340776821705e+01 -1.192526901141e+01 +7.340776821705e+01 -2.997406934882e-01 -1.641713470709e+01
 1.87000000e+01 -3.029957518845e-01 -1.647541849046e+01 -1.188179180078e+01 +7.332164263342e+01 -1.188179180078e+01 +7.332164263342e+01 -3.028473828729e-01 -1.650175429138e+01
 1.88000000e+01 -3.061168904925e-01 -1.655984147858e+01 -1.183857780300e+01 +7.323557332848e+01 -1.183857780300e+01 +7.323557332848e+01 -3.059685153572e-01 -1.658631864750e+01
 1.89000000e+01 -3.092524375358e-01 -1.664420905166e+01 -1.179562434645e+01 +7.314956050347e+01 -1.179562434645e+01 +7.314956050347e+01 -3.091040584561e-01 -1.667082755310e+01
 1.90000000e+01 -3.124023604293e-01 -1.672852098866e+01 -1.175292880127e+01 +7.306360435890e+01 -1.175292880127e+01 +7.306360435890e+01 -3.122539795752e-01 -1.675528078698e+01
 1.91000000e+01 -3.155666264795e-01 -1.681277706962e+01 -1.171048857836e+01 +7.297770509451e+01 -1.171048857836e+01 +7.297770509451e+01 -3.154182460111e-01 -1.683967812904e+01
 1.92000000e+01 -3.187452028859e-01 -1.689697707576e+01 -1.166830112865e+01 +7.289186290929e+01 -1.166830112865e+01 +7.289186290929e+01 -3.185968249536e-01 -1.692401936035e+01
 1.93000000e+01 -3.219380567422e-01 -1.698112078943e+01 -1.162636394218e+01 +7.280607800144e+01 -1.162636394218e+01 +7.280607800144e+01 -3.217896834865e-01 -1.700830426309e+01
 1.94000000e+01 -3.251451550376e-01 -1.706520799412e+01 -1.158467454731e+01 +7.272035056840e+01 -1.158467454731e+01 +7.272035056840e+01 -3.249967885887e-01 -1.709253262060e+01
 1.95000000e+01 -3.283664646577e-01 -1.714923847445e+01 -1.154323050996e+01 +7.263468080681e+01 -1.154323050996e+01 +7.263468080680e+01 -3.282181071357e-01 -1.717670421735e+01
 1.96000000e+01 -3.316019523864e-01 -1.723321201620e+01 -1.150202943279e+01 +7.254906891250e+01 -1.150202943279e+01 +7.254906891250e+01 -3.314536059008e-01 -1.726081883896e+01
 1.97000000e+01 -3.348515849067e-01 -1.731712840631e+01 -1.146106895451e+01 +7.246351508054e+01 -1.146106895451e+01 +7.246351508054e+01 -3.347032515560e-01 -1.734487627220e+01
 1.98000000e+01 -3.381153288019e-01 -1.740098743284e+01 -1.142034674910e+01 +7.237801950514e+01 -1.142034674910e+01 +7.237801950514e+01 -3.379670106741e-01 -1.742887630497e+01
 1.99000000e+01 -3.413931505570e-01 -1.748478888502e+01 -1.137986052511e+01 +7.229258237970e+01 -1.137986052511e+01 +7.229258237970e+01 -3.412448497288e-01 -1.751281872634e+01
 2.00000000e+01 -3.446850165599e-01 -1.756853255324e+01 -1.133960802497e+01 +7.220720389683e+01 -1.133960802497e+01 +7.220720389683e+01 -3.445367350967e-01 -1.759670332651e+01
