#  GHZ S DB R 50
 1.00000000e-02 -3.502317312502e-07 -8.960550052269e-03 -7.712781599484e+01 +8.999174938274e+01 -7.712781599499e+01 +8.999174938383e+01 -1.939912542544e-07 -8.975049016423e-03
 2.00000000e-02 -6.684878555545e-07 -1.792109685295e-02 -7.110723008947e+01 +8.998347850308e+01 -7.110723008949e+01 +8.998347850357e+01 -5.085185198461e-07 -1.795005085604e-02
 1.00000000e-01 -1.086898321045e-05 -8.960496132663e-02 -5.712780156670e+01 +8.991730462784e+01 -5.712780156671e+01 +8.991730462794e+01 -1.058816618071e-05 -8.974970368132e-02
 2.00000000e-01 -4.271571476074e-05 -1.792068266346e-01 -5.110709232137e+01 +8.983451120703e+01 -5.110709232137e+01 +8.983451120707e+01 -4.205908998723e-05 -1.794965044991e-01
 3.00000000e-01 -9.567832400499e-05 -2.688026293384e-01 -4.758508832020e+01 +8.975155855589e+01 -4.758508832020e+01 +8.975155855593e+01 -9.440363098678e-05 -2.692376175550e-01
 4.00000000e-01 -1.695874831840e-04 -3.583896195940e-01 -4.508607106401e+01 +8.966837911643e+01 -4.508607106401e+01 +8.966837911648e+01 -1.674642948547e-04 -3.589704568544e-01
 5.00000000e-01 -2.642221488462e-04 -4.479653445164e-01 -4.314757187902e+01 +8.958491613802e+01 -4.314757187902e+01 +8.958491613806e+01 -2.610357148911e-04 -4.486927126165e-01
 6.00000000e-01 -3.793243824256e-04 -5.375276946842e-01 -4.156360002030e+01 +8.950112474514e+01 -4.156360002031e+01 +8.950112474517e+01 -3.748781268628e-04 -5.384023932483e-01
 7.00000000e-01 -5.146137562854e-04 -6.270749216907e-01 -4.022427819336e+01 +8.941697260784e+01 -4.022427819337e+01 +8.941697260788e+01 -5.087306131461e-04 -6.280978420574e-01
 8.00000000e-01 -6.698003393201e-04 -7.166056292056e-01 -3.906402308452e+01 +8.933243944884e+01 -3.906402308453e+01 +8.933243944888e+01 -6.623231412057e-04 -7.177777295584e-01
 9.00000000e-01 -8.445954354405e-04 -8.061187443667e-01 -3.804053495551e+01 +8.924751572195e+01 -3.804053495552e+01 +8.924751572198e+01 -8.353865626873e-04 -8.074410274231e-01
 1.00000000e+00 -1.038719666129e-03 -8.956134773385e-01 -3.712493396888e+01 +8.916220084084e+01 -3.712493396888e+01 +8.916220084087e+01 -1.027660169209e-03 -8.970869712934e-01
 1.10000000e+00 -1.251908430076e-03 -9.850892760869e-01 -3.629662283711e+01 +8.907650126670e+01 -3.629662283711e+01 +8.907650126674e+01 -1.238896817436e-03 -9.867150189978e-01
 1.20000000e+00 -1.483915083304e-03 -1.074545781742e+00 -3.554039433301e+01 +8.899042867679e+01 -3.554039433301e+01 +8.899042867682e+01 -1.468865937903e-03 -1.076324809190e+00
 1.30000000e+00 -1.734512334464e-03 -1.163982788000e+00 -3.484470060854e+01 +8.890399835045e+01 -3.484470060854e+01 +8.890399835048e+01 -1.717354880019e-03 -1.165916123642e+00
 1.40000000e+00 -2.003492372590e-03 -1.253400206300e+00 -3.420056576615e+01 +8.881722783669e+01 -3.420056576615e+01 +8.881722783672e+01 -1.984169072153e-03 -1.255488854834e+00
 1.50000000e+00 -2.290666183886e-03 -1.342798037231e+00 -3.360087454918e+01 +8.873013591338e+01 -3.360087454918e+01 +8.873013591340e+01 -2.269131422617e-03 -1.345042979284e+00
 1.60000000e+00 -2.595862417217e-03 -1.432176347775e+00 -3.303989110265e+01 +8.864274181454e+01 -3.303989110265e+01 +8.864274181457e+01 -2.572081291379e-03 -1.434578536274e+00
 1.70000000e+00 -2.918926053004e-03 -1.521535253582e+00 -3.251292391262e+01 +8.855506468469e+01 -3.251292391262e+01 +8.855506468471e+01 -2.892873274667e-03 -1.524095611232e+00
 1.80000000e+00 -3.259717040300e-03 -1.610874905314e+00 -3.201608668239e+01 +8.846712321387e+01 -3.201608668239e+01 +8.846712321390e+01 -3.231375952695e-03 -1.613594322898e+00
 1.90000000e+00 -3.618108995693e-03 -1.700195478162e+00 -3.154612396135e+01 +8.837893540946e+01 -3.154612396135e+01 +8.837893540948e+01 -3.587470689306e-03 -1.703074813421e+00
 2.00000000e+00 -3.993988007516e-03 -1.789497163713e+00 -3.110028156208e+01 +8.829051846656e+01 -3.110028156208e+01 +8.829051846659e+01 -3.961050525498e-03 -1.792537240667e+00
 2.10000000e+00 -4.387251559199e-03 -1.878780163589e+00 -3.067620863236e+01 +8.820188870678e+01 -3.067620863236e+01 +8.820188870680e+01 -4.352019178636e-03 -1.881981772167e+00
 2.20000000e+00 -4.797807565227e-03 -1.968044684336e+00 -3.027188253315e+01 +8.811306156185e+01 -3.027188253315e+01 +8.811306156187e+01 -4.760290144046e-03 -1.971408580256e+00
 2.30000000e+00 -5.225573507457e-03 -2.057290933277e+00 -2.988555043140e+01 +8.802405158557e+01 -2.988555043140e+01 +8.802405158559e+01 -5.185785886625e-03 -2.060817838107e+00
 2.40000000e+00 -5.670475654946e-03 -2.146519115051e+00 -2.951568333414e+01 +8.793487248209e+01 -2.951568333414e+01 +8.793487248211e+01 -5.628437108156e-03 -2.150209716438e+00
 2.50000000e+00 -6.132448352876e-03 -2.235729428719e+00 -2.916093951310e+01 +8.784553714289e+01 -2.916093951310e+01 +8.784553714291e+01 -6.088182078509e-03 -2.239584380749e+00
 2.60000000e+00 -6.611433367540e-03 -2.324922065305e+00 -2.882013510778e+01 +8.775605768732e+01 -2.882013510778e+01 +8.775605768734e+01 -6.564966017055e-03 -2.328941988987e+00
 2.70000000e+00 -7.107379277675e-03 -2.414097205730e+00 -2.849222028005e+01 +8.766644550389e+01 -2.849222028005e+01 +8.766644550391e+01 -7.058740517949e-03 -2.418282689590e+00
 2.80000000e+00 -7.620240905337e-03 -2.503255019072e+00 -2.817625970782e+01 +8.757671129047e+01 -2.817625970782e+01 +8.757671129048e+01 -7.569463012558e-03 -2.507606619846e+00
 2.90000000e+00 -8.149978780834e-03 -2.592395661125e+00 -2.787141650367e+01 +8.748686509263e+01 -2.787141650367e+01 +8.748686509264e+01 -8.097096263542e-03 -2.596913904548e+00
 3.00000000e+00 -8.696558639238e-03 -2.681519273239e+00 -2.757693886114e+01 +8.739691633995e+01 -2.757693886114e+01 +8.739691633997e+01 -8.641607889629e-03 -2.686204654908e+00
 3.10000000e+00 -9.259950945899e-03 -2.770625981403e+00 -2.729214889180e+01 +8.730687388009e+01 -2.729214889180e+01 +8.730687388011e+01 -9.202969918145e-03 -2.775478967720e+00
 3.20000000e+00 -9.840130450183e-03 -2.859715895555e+00 -2.701643323551e+01 +8.721674601090e+01 -2.701643323551e+01 +8.721674601092e+01 -9.781158365386e-03 -2.864736924723e+00
 3.30000000e+00 -1.043707576623e-02 -2.948789109102e+00 -2.674923511621e+01 +8.712654051072e+01 -2.674923511621e+01 +8.712654051073e+01 -1.037615284230e-02 -2.953978592173e+00
 3.40000000e+00 -1.105076898042e-02 -3.037845698615e+00 -2.649004758428e+01 +8.703626466706e+01 -2.649004758428e+01 +8.703626466708e+01 -1.098793618669e-02 -3.043204020578e+00
 3.50000000e+00 -1.168119528527e-02 -3.126885723693e+00 -2.623840773888e+01 +8.694592530391e+01 -2.623840773888e+01 +8.694592530392e+01 -1.161649412046e-02 -3.132413244585e+00
 3.60000000e+00 -1.232834263826e-02 -3.215909226966e+00 -2.599389176456e+01 +8.685552880770e+01 -2.599389176456e+01 +8.685552880772e+01 -1.226181493172e-02 -3.221606282999e+00
 3.70000000e+00 -1.299220144588e-02 -3.304916234216e+00 -2.575611064816e+01 +8.676508115221e+01 -2.575611064816e+01 +8.676508115222e+01 -1.292388917911e-02 -3.310783138910e+00
 3.80000000e+00 -1.367276427137e-02 -3.393906754605e+00 -2.552470646717e+01 +8.667458792230e+01 -2.552470646717e+01 +8.667458792231e+01 -1.360270942096e-02 -3.399943799919e+00
 3.90000000e+00 -1.437002556573e-02 -3.482880780991e+00 -2.529934916027e+01 +8.658405433672e+01 -2.529934916027e+01 +8.658405433673e+01 -1.429826996458e-02 -3.489088238439e+00
 4.00000000e+00 -1.508398142046e-02 -3.571838290310e+00 -2.507973370692e+01 +8.649348526993e+01 -2.507973370692e+01 +8.649348526994e+01 -1.501056663731e-02 -3.578216412055e+00
 4.10000000e+00 -1.581462934120e-02 -3.660779244019e+00 -2.486557765525e+01 +8.640288527300e+01 -2.486557765525e+01 +8.640288527301e+01 -1.573959657535e-02 -3.667328263946e+00
 4.20000000e+00 -1.656196804117e-02 -3.749703588584e+00 -2.465661894782e+01 +8.631225859348e+01 -2.465661894782e+01 +8.631225859349e+01 -1.648535803380e-02 -3.756423723335e+00
 4.30000000e+00 -1.732599725298e-02 -3.838611256000e+00 -2.445261400334e+01 +8.622160919455e+01 -2.445261400334e+01 +8.622160919456e+01 -1.724785021072e-02 -3.845502705974e+00
 4.40000000e+00 -1.810671755786e-02 -3.927502164333e+00 -2.425333601886e+01 +8.613094077310e+01 -2.425333601885e+01 +8.613094077311e+01 -1.802707308947e-02 -3.934565114652e+00
 4.50000000e+00 -1.890413023073e-02 -4.016376218287e+00 -2.405857346266e+01 +8.604025677699e+01 -2.405857346266e+01 +8.604025677699e+01 -1.882302729472e-02 -4.023610839713e+00
 4.60000000e+00 -1.971823710065e-02 -4.105233309773e+00 -2.386812873292e+01 +8.594956042143e+01 -2.386812873292e+01 +8.594956042143e+01 -1.963571396277e-02 -4.112639759585e+00
 4.70000000e+00 -2.054904042469e-02 -4.194073318485e+00 -2.368181696043e+01 +8.585885470448e+01 -2.368181696043e+01 +8.585885470449e+01 -2.046513462353e-02 -4.201651741312e+00
 4.80000000e+00 -2.139654277480e-02 -4.282896112470e+00 -2.349946493739e+01 +8.576814242172e+01 -2.349946493739e+01 +8.576814242173e+01 -2.131129109660e-02 -4.290646641079e+00
 4.90000000e+00 -2.226074693631e-02 -4.371701548700e+00 -2.332091015663e+01 +8.567742618004e+01 -2.332091015663e+01 +8.567742618005e+01 -2.217418539472e-02 -4.379624304742e+00
 5.00000000e+00 -2.314165581727e-02 -4.460489473631e+00 -2.314599994775e+01 +8.558670841068e+01 -2.314599994775e+01 +8.558670841068e+01 -2.305381964074e-02 -4.468584568342e+00
 5.10000000e+00 -2.403927236759e-02 -4.549259723747e+00 -2.297459069887e+01 +8.549599138146e+01 -2.297459069887e+01 +8.549599138147e+01 -2.395019599004e-02 -4.557527258608e+00
 5.20000000e+00 -2.495359950714e-02 -4.638012126098e+00 -2.280654715377e+01 +8.540527720827e+01 -2.280654715377e+01 +8.540527720828e+01 -2.486331656437e-02 -4.646452193457e+00
 5.30000000e+00 -2.588464006233e-02 -4.726746498814e+00 -2.264174177603e+01 +8.531456786581e+01 -2.264174177603e+01 +8.531456786582e+01 -2.579318339157e-02 -4.735359182467e+00
 5.40000000e+00 -2.683239670974e-02 -4.815462651612e+00 -2.248005417253e+01 +8.522386519769e+01 -2.248005417253e+01 +8.522386519770e+01 -2.673979835242e-02 -4.824248027347e+00
 5.50000000e+00 -2.779687192695e-02 -4.904160386273e+00 -2.232137056973e+01 +8.513317092581e+01 -2.232137056973e+01 +8.513317092581e+01 -2.770316313386e-02 -4.913118522382e+00
 5.60000000e+00 -2.877806794915e-02 -4.992839497111e+00 -2.216558333720e+01 +8.504248665914e+01 -2.216558333720e+01 +8.504248665914e+01 -2.868327918810e-02 -5.001970454870e+00
 5.70000000e+00 -2.977598673171e-02 -5.081499771420e+00 -2.201259055320e+01 +8.495181390194e+01 -2.201259055320e+01 +8.495181390195e+01 -2.968014769723e-02 -5.090803605533e+00
 5.80000000e+00 -3.079062991742e-02 -5.170140989900e+00 -2.186229560804e+01 +8.486115406139e+01 -2.186229560804e+01 +8.486115406139e+01 -3.069376954116e-02 -5.179617748917e+00
 5.90000000e+00 -3.182199880847e-02 -5.258762927065e+00 -2.171460684128e+01 +8.477050845465e+01 -2.171460684128e+01 +8.477050845466e+01 -3.172414527153e-02 -5.268412653774e+00
 6.00000000e+00 -3.287009434248e-02 -5.347365351635e+00 -2.156943720944e+01 +8.467987831552e+01 -2.156943720944e+01 +8.467987831553e+01 -3.277127508856e-02 -5.357188083427e+00
 6.10000000e+00 -3.393491707211e-02 -5.435948026904e+00 -2.142670398104e+01 +8.458926480056e+01 -2.142670398104e+01 +8.458926480056e+01 -3.383515882119e-02 -5.445943796117e+00
 6.20000000e+00 -3.501646714813e-02 -5.524510711095e+00 -2.128632845654e+01 +8.449866899477e+01 -2.128632845654e+01 +8.449866899477e+01 -3.491579591083e-02 -5.534679545331e+00
 6.30000000e+00 -3.611474430518e-02 -5.613053157697e+00 -2.114823571054e+01 +8.440809191694e+01 -2.114823571054e+01 +8.440809191694e+01 -3.601318539767e-02 -5.623395080122e+00
 6.40000000e+00 -3.722974785045e-02 -5.701575115779e+00 -2.101235435434e+01 +8.431753452453e+01 -2.101235435434e+01 +8.431753452453e+01 -3.712732590945e-02 -5.712090145404e+00
 6.50000000e+00 -3.836147665441e-02 -5.790076330295e+00 -2.087861631683e+01 +8.422699771825e+01 -2.087861631683e+01 +8.422699771826e+01 -3.825821565265e-02 -5.800764482239e+00
 6.60000000e+00 -3.950992914381e-02 -5.878556542369e+00 -2.074695664213e+01 +8.413648234629e+01 -2.074695664213e+01 +8.413648234629e+01 -3.940585240514e-02 -5.889417828101e+00
 6.70000000e+00 -4.067510329651e-02 -5.967015489563e+00 -2.061731330239e+01 +8.404598920823e+01 -2.061731330239e+01 +8.404598920823e+01 -4.057023351161e-02 -5.978049917136e+00
 6.80000000e+00 -4.185699663770e-02 -6.055452906136e+00 -2.048962702446e+01 +8.395551905870e+01 -2.048962702446e+01 +8.395551905870e+01 -4.175135587936e-02 -6.066660480402e+00
 6.90000000e+00 -4.305560623805e-02 -6.143868523283e+00 -2.036384112919e+01 +8.386507261072e+01 -2.036384112919e+01 +8.386507261072e+01 -4.294921597649e-02 -6.155249246092e+00
 7.00000000e+00 -4.427092871251e-02 -6.232262069362e+00 -2.023990138229e+01 +8.377465053887e+01 -2.023990138229e+01 +8.377465053887e+01 -4.416380983046e-02 -6.243815939758e+00
 7.10000000e+00 -4.550296022075e-02 -6.320633270112e+00 -2.011775585575e+01 +8.368425348214e+01 -2.011775585574e+01 +8.368425348214e+01 -4.539513302870e-02 -6.332360284505e+00
 7.20000000e+00 -4.675169646823e-02 -6.408981848852e+00 -1.999735479888e+01 +8.359388204664e+01 -1.999735479888e+01 +8.359388204665e+01 -4.664318071892e-02 -6.420882001189e+00
 7.30000000e+00 -4.801713270821e-02 -6.497307526676e+00 -1.987865051839e+01 +8.350353680808e+01 -1.987865051839e+01 +8.350353680808e+01 -4.790794761153e-02 -6.509380808598e+00
 7.40000000e+00 -4.929926374449e-02 -6.585610022631e+00 -1.976159726640e+01 +8.341321831405e+01 -1.976159726640e+01 +8.341321831405e+01 -4.918942798158e-02 -6.597856423619e+00
 7.50000000e+00 -5.059808393480e-02 -6.673889053886e+00 -1.964615113615e+01 +8.332292708618e+01 -1.964615113615e+01 +8.332292708618e+01 -5.048761567240e-02 -6.686308561402e+00
 7.60000000e+00 -5.191358719463e-02 -6.762144335896e+00 -1.953226996452e+01 +8.323266362208e+01 -1.953226996452e+01 +8.323266362209e+01 -5.180250409882e-02 -6.774736935509e+00
 7.70000000e+00 -5.324576700165e-02 -6.850375582546e+00 -1.941991324088e+01 +8.314242839723e+01 -1.941991324088e+01 +8.314242839723e+01 -5.313408625144e-02 -6.863141258061e+00
 7.80000000e+00 -5.459461640033e-02 -6.938582506300e+00 -1.930904202192e+01 +8.305222186659e+01 -1.930904202192e+01 +8.305222186659e+01 -5.448235470086e-02 -6.951521239868e+00
 7.90000000e+00 -5.596012800695e-02 -7.026764818328e+00 -1.919961885179e+01 +8.296204446623e+01 -1.919961885179e+01 +8.296204446623e+01 -5.584730160284e-02 -7.039876590557e+00
 8.00000000e+00 -5.734229401506e-02 -7.114922228638e+00 -1.909160768734e+01 +8.287189661475e+01 -1.909160768734e+01 +8.287189661475e+01 -5.722891870275e-02 -7.128207018694e+00
 8.10000000e+00 -5.874110620068e-02 -7.203054446187e+00 -1.898497382792e+01 +8.278177871463e+01 -1.898497382792e+01 +8.278177871464e+01 -5.862719734131e-02 -7.216512231893e+00
 8.20000000e+00 -6.015655592812e-02 -7.291161179001e+00 -1.887968384958e+01 +8.269169115350e+01 -1.887968384958e+01 +8.269169115351e+01 -6.004212845923e-02 -7.304791936921e+00
 8.30000000e+00 -6.158863415581e-02 -7.379242134271e+00 -1.877570554314e+01 +8.260163430525e+01 -1.877570554314e+01 +8.260163430525e+01 -6.147370260363e-02 -7.393045839802e+00
 8.40000000e+00 -6.303733144185e-02 -7.467297018460e+00 -1.867300785607e+01 +8.251160853111e+01 -1.867300785606e+01 +8.251160853111e+01 -6.292190993286e-02 -7.481273645906e+00
 8.50000000e+00 -6.450263795031e-02 -7.555325537388e+00 -1.857156083773e+01 +8.242161418065e+01 -1.857156083772e+01 +8.242161418066e+01 -6.438674022231e-02 -7.569475060041e+00
 8.60000000e+00 -6.598454345680e-02 -7.643327396326e+00 -1.847133558785e+01 +8.233165159269e+01 -1.847133558785e+01 +8.233165159269e+01 -6.586818287016e-02 -7.657649786532e+00
 8.70000000e+00 -6.748303735464e-02 -7.731302300074e+00 -1.837230420798e+01 +8.224172109613e+01 -1.837230420798e+01 +8.224172109613e+01 -6.736622690304e-02 -7.745797529302e+00
 8.80000000e+00 -6.899810866062e-02 -7.819249953042e+00 -1.827443975569e+01 +8.215182301074e+01 -1.827443975569e+01 +8.215182301075e+01 -6.888086098154e-02 -7.833917991947e+00
 8.90000000e+00 -7.052974602105e-02 -7.907170059321e+00 -1.817771620137e+01 +8.206195764790e+01 -1.817771620137e+01 +8.206195764790e+01 -7.041207340607e-02 -7.922010877800e+00
 9.00000000e+00 -7.207793771753e-02 -7.995062322752e+00 -1.808210838745e+01 +8.197212531123e+01 -1.808210838745e+01 +8.197212531123e+01 -7.195985212197e-02 -8.010075890002e+00
 9.10000000e+00 -7.364267167265e-02 -8.082926446990e+00 -1.798759198986e+01 +8.188232629726e+01 -1.798759198986e+01 +8.188232629726e+01 -7.352418472578e-02 -8.098112731562e+00
 9.20000000e+00 -7.522393545587e-02 -8.170762135569e+00 -1.789414348160e+01 +8.179256089595e+01 -1.789414348160e+01 +8.179256089595e+01 -7.510505847001e-02 -8.186121105412e+00
 9.30000000e+00 -7.682171628899e-02 -8.258569091956e+00 -1.780174009825e+01 +8.170282939126e+01 -1.780174009825e+01 +8.170282939126e+01 -7.670246026870e-02 -8.274100714467e+00
 9.40000000e+00 -7.843600105192e-02 -8.346347019606e+00 -1.771035980538e+01 +8.161313206162e+01 -1.771035980538e+01 +8.161313206163e+01 -7.831637670327e-02 -8.362051261672e+00
 9.50000000e+00 -8.006677628789e-02 -8.434095622015e+00 -1.761998126764e+01 +8.152346918039e+01 -1.761998126764e+01 +8.152346918039e+01 -7.994679402672e-02 -8.449972450054e+00
 9.60000000e+00 -8.171402820905e-02 -8.521814602769e+00 -1.753058381947e+01 +8.143384101625e+01 -1.753058381947e+01 +8.143384101626e+01 -8.159369816970e-02 -8.537863982765e+00
 9.70000000e+00 -8.337774270151e-02 -8.609503665584e+00 -1.744214743732e+01 +8.134424783364e+01 -1.744214743732e+01 +8.134424783364e+01 -8.325707474504e-02 -8.625725563130e+00
 9.80000000e+00 -8.505790533072e-02 -8.697162514358e+00 -1.735465271335e+01 +8.125468989306e+01 -1.735465271335e+01 +8.125468989306e+01 -8.493690905304e-02 -8.713556894682e+00
 9.90000000e+00 -8.675450134635e-02 -8.784790853207e+00 -1.726808083038e+01 +8.116516745143e+01 -1.726808083038e+01 +8.116516745143e+01 -8.663318608576e-02 -8.801357681207e+00
 1.00000000e+01 -8.846751568732e-02 -8.872388386501e+00 -1.718241353815e+01 +8.107568076238e+01 -1.718241353815e+01 +8.107568076238e+01 -8.834589053211e-02 -8.889127626776e+00
 1.01000000e+01 -9.019693298679e-02 -8.959954818908e+00 -1.709763313077e+01 +8.098623007653e+01 -1.709763313077e+01 +8.098623007653e+01 -9.007500678274e-02 -8.976866435783e+00
 1.02000000e+01 -9.194273757655e-02 -9.047489855421e+00 -1.701372242524e+01 +8.089681564177e+01 -1.701372242524e+01 +8.089681564177e+01 -9.182051893420e-02 -9.064573812975e+00
 1.03000000e+01 -9.370491349205e-02 -9.134993201398e+00 -1.693066474103e+01 +8.080743770345e+01 -1.693066474103e+01 +8.080743770345e+01 -9.358241079317e-02 -9.152249463485e+00
 1.04000000e+01 -9.548344447656e-02 -9.222464562585e+00 -1.684844388069e+01 +8.071809650465e+01 -1.684844388069e+01 +8.071809650465e+01 -9.536066588144e-02 -9.239893092861e+00
 1.05000000e+01 -9.727831398590e-02 -9.309903645153e+00 -1.676704411132e+01 +8.062879228634e+01 -1.676704411132e+01 +8.062879228634e+01 -9.715526743963e-02 -9.327504407095e+00
 1.06000000e+01 -9.908950519261e-02 -9.397310155722e+00 -1.668645014693e+01 +8.053952528758e+01 -1.668645014693e+01 +8.053952528758e+01 -9.896619843141e-02 -9.415083112648e+00
 1.07000000e+01 -1.009170009901e-01 -9.484683801388e+00 -1.660664713171e+01 +8.045029574570e+01 -1.660664713171e+01 +8.045029574570e+01 -1.007934415477e-01 -9.502628916474e+00
 1.08000000e+01 -1.027607839970e-01 -9.572024289748e+00 -1.652762062395e+01 +8.036110389643e+01 -1.652762062395e+01 +8.036110389643e+01 -1.026369792105e-01 -9.590141526048e+00
 1.09000000e+01 -1.046208365607e-01 -9.659331328923e+00 -1.644935658082e+01 +8.027194997406e+01 -1.644935658082e+01 +8.027194997406e+01 -1.044967935767e-01 -9.677620649386e+00
 1.10000000e+01 -1.064971407621e-01 -9.746604627586e+00 -1.637184134372e+01 +8.018283421156e+01 -1.637184134372e+01 +8.018283421157e+01 -1.063728665417e-01 -9.765065995066e+00
 1.11000000e+01 -1.083896784187e-01 -9.833843894975e+00 -1.629506162445e+01 +8.009375684074e+01 -1.629506162445e+01 +8.009375684074e+01 -1.082651797437e-01 -9.852477272248e+00
 1.12000000e+01 -1.102984310883e-01 -9.921048840921e+00 -1.621900449184e+01 +8.000471809227e+01 -1.621900449184e+01 +8.000471809228e+01 -1.101737145665e-01 -9.939854190700e+00
 1.13000000e+01 -1.122233800734e-01 -1.000821917586e+01 -1.614365735908e+01 +7.991571819588e+01 -1.614365735908e+01 +7.991571819589e+01 -1.120984521431e-01 -1.002719646081e+01
 1.14000000e+01 -1.141645064240e-01 -1.009535461087e+01 -1.606900797157e+01 +7.982675738038e+01 -1.606900797157e+01 +7.982675738038e+01 -1.140393733598e-01 -1.011450379359e+01
 1.15000000e+01 -1.161217909414e-01 -1.018245485765e+01 -1.599504439531e+01 +7.973783587376e+01 -1.599504439531e+01 +7.973783587376e+01 -1.159964588588e-01 -1.020177590074e+01
 1.16000000e+01 -1.180952141817e-01 -1.026951962859e+01 -1.592175500578e+01 +7.964895390329e+01 -1.592175500578e+01 +7.964895390329e+01 -1.179696890419e-01 -1.028901249461e+01
 1.17000000e+01 -1.200847564587e-01 -1.035654863675e+01 -1.584912847731e+01 +7.956011169554e+01 -1.584912847731e+01 +7.956011169555e+01 -1.199590440731e-01 -1.037621328823e+01
 1.18000000e+01 -1.220903978476e-01 -1.044354159586e+01 -1.577715377288e+01 +7.947130947651e+01 -1.577715377288e+01 +7.947130947651e+01 -1.219645038824e-01 -1.046337799536e+01
 1.19000000e+01 -1.241121181881e-01 -1.053049822040e+01 -1.570582013440e+01 +7.938254747160e+01 -1.570582013440e+01 +7.938254747160e+01 -1.239860481684e-01 -1.055050633046e+01
 1.20000000e+01 -1.261498970871e-01 -1.061741822554e+01 -1.563511707335e+01 +7.929382590573e+01 -1.563511707335e+01 +7.929382590573e+01 -1.260236564014e-01 -1.063759800871e+01
 1.21000000e+01 -1.282037139219e-01 -1.070430132721e+01 -1.556503436181e+01 +7.920514500334e+01 -1.556503436181e+01 +7.920514500334e+01 -1.280773078263e-01 -1.072465274606e+01
 1.22000000e+01 -1.302735478437e-01 -1.079114724208e+01 -1.549556202388e+01 +7.911650498846e+01 -1.549556202388e+01 +7.911650498847e+01 -1.301469814654e-01 -1.081167025920e+01
 1.23000000e+01 -1.323593777795e-01 -1.087795568758e+01 -1.542669032747e+01 +7.902790608473e+01 -1.542669032747e+01 +7.902790608473e+01 -1.322326561210e-01 -1.089865026558e+01
 1.24000000e+01 -1.344611824357e-01 -1.096472638191e+01 -1.535840977634e+01 +7.893934851541e+01 -1.535840977634e+01 +7.893934851541e+01 -1.343343103785e-01 -1.098559248344e+01
 1.25000000e+01 -1.365789403006e-01 -1.105145904408e+01 -1.529071110256e+01 +7.885083250345e+01 -1.529071110256e+01 +7.885083250345e+01 -1.364519226087e-01 -1.107249663180e+01
 1.26000000e+01 -1.387126296470e-01 -1.113815339387e+01 -1.522358525921e+01 +7.876235827150e+01 -1.522358525921e+01 +7.876235827150e+01 -1.385854709706e-01 -1.115936243050e+01
 1.27000000e+01 -1.408622285351e-01 -1.122480915187e+01 -1.515702341338e+01 +7.867392604189e+01 -1.515702341338e+01 +7.867392604189e+01 -1.407349334136e-01 -1.124618960017e+01
 1.28000000e+01 -1.430277148146e-01 -1.131142603950e+01 -1.509101693945e+01 +7.858553603671e+01 -1.509101693945e+01 +7.858553603671e+01 -1.429002876807e-01 -1.133297786227e+01
 1.29000000e+01 -1.452090661279e-01 -1.139800377901e+01 -1.502555741264e+01 +7.849718847779e+01 -1.502555741264e+01 +7.849718847779e+01 -1.450815113100e-01 -1.141972693909e+01
 1.30000000e+01 -1.474062599120e-01 -1.148454209346e+01 -1.496063660279e+01 +7.840888358670e+01 -1.496063660279e+01 +7.840888358670e+01 -1.472785816378e-01 -1.150643655375e+01
 1.31000000e+01 -1.496192734015e-01 -1.157104070678e+01 -1.489624646837e+01 +7.832062158479e+01 -1.489624646837e+01 +7.832062158479e+01 -1.494914758008e-01 -1.159310643022e+01
 1.32000000e+01 -1.518480836303e-01 -1.165749934375e+01 -1.483237915078e+01 +7.823240269319e+01 -1.483237915078e+01 +7.823240269319e+01 -1.517201707382e-01 -1.167973629332e+01
 1.33000000e+01 -1.540926674344e-01 -1.174391773000e+01 -1.476902696876e+01 +7.814422713280e+01 -1.476902696876e+01 +7.814422713280e+01 -1.539646431940e-01 -1.176632586876e+01
 1.34000000e+01 -1.563530014543e-01 -1.183029559205e+01 -1.470618241314e+01 +7.805609512431e+01 -1.470618241314e+01 +7.805609512431e+01 -1.562248697193e-01 -1.185287488310e+01
 1.35000000e+01 -1.586290621368e-01 -1.191663265727e+01 -1.464383814164e+01 +7.796800688818e+01 -1.464383814164e+01 +7.796800688818e+01 -1.585008266743e-01 -1.193938306377e+01
 1.36000000e+01 -1.609208257375e-01 -1.200292865394e+01 -1.458198697401e+01 +7.787996264469e+01 -1.458198697401e+01 +7.787996264469e+01 -1.607924902307e-01 -1.202585013909e+01
 1.37000000e+01 -1.632282683231e-01 -1.208918331122e+01 -1.452062188721e+01 +7.779196261388e+01 -1.452062188721e+01 +7.779196261388e+01 -1.630998363736e-01 -1.211227583830e+01
 1.38000000e+01 -1.655513657730e-01 -1.217539635918e+01 -1.445973601088e+01 +7.770400701558e+01 -1.445973601088e+01 +7.770400701558e+01 -1.654228409038e-01 -1.219865989151e+01
 1.39000000e+01 -1.678900937820e-01 -1.226156752880e+01 -1.439932262291e+01 +7.761609606942e+01 -1.439932262291e+01 +7.761609606942e+01 -1.677614794392e-01 -1.228500202975e+01
 1.40000000e+01 -1.702444278621e-01 -1.234769655194e+01 -1.433937514514e+01 +7.752822999478e+01 -1.433937514514e+01 +7.752822999478e+01 -1.701157274175e-01 -1.237130198495e+01
 1.41000000e+01 -1.726143433445e-01 -1.243378316143e+01 -1.427988713933e+01 +7.744040901084e+01 -1.427988713933e+01 +7.744040901084e+01 -1.724855600979e-01 -1.245755948997e+01
 1.42000000e+01 -1.749998153814e-01 -1.251982709098e+01 -1.422085230316e+01 +7.735263333653e+01 -1.422085230316e+01 +7.735263333653e+01 -1.748709525627e-01 -1.254377427860e+01
 1.43000000e+01 -1.774008189484e-01 -1.260582807526e+01 -1.416226446638e+01 +7.726490319055e+01 -1.416226446638e+01 +7.726490319055e+01 -1.772718797196e-01 -1.262994608555e+01
 1.44000000e+01 -1.798173288461e-01 -1.269178584986e+01 -1.410411758719e+01 +7.717721879135e+01 -1.410411758719e+01 +7.717721879135e+01 -1.796883163036e-01 -1.271607464647e+01
 1.45000000e+01 -1.822493197020e-01 -1.277770015133e+01 -1.404640574863e+01 +7.708958035713e+01 -1.404640574863e+01 +7.708958035714e+01 -1.821202368782e-01 -1.280215969794e+01
 1.46000000e+01 -1.846967659726e-01 -1.286357071716e+01 -1.398912315514e+01 +7.700198810583e+01 -1.398912315514e+01 +7.700198810584e+01 -1.845676158384e-01 -1.288820097752e+01
 1.47000000e+01 -1.871596419450e-01 -1.294939728578e+01 -1.393226412927e+01 +7.691444225512e+01 -1.393226412927e+01 +7.691444225512e+01 -1.870304274109e-01 -1.297419822369e+01
 1.48000000e+01 -1.896379217386e-01 -1.303517959661e+01 -1.387582310847e+01 +7.682694302237e+01 -1.387582310847e+01 +7.682694302237e+01 -1.895086456573e-01 -1.306015117590e+01
 1.49000000e+01 -1.921315793075e-01 -1.312091739000e+01 -1.381979464194e+01 +7.673949062469e+01 -1.381979464194e+01 +7.673949062469e+01 -1.920022444747e-01 -1.314605957456e+01
 1.50000000e+01 -1.946405884413e-01 -1.320661040729e+01 -1.376417338772e+01 +7.665208527887e+01 -1.376417338772e+01 +7.665208527887e+01 -1.945111975986e-01 -1.323192316104e+01
 1.51000000e+01 -1.971649227678e-01 -1.329225839079e+01 -1.370895410970e+01 +7.656472720140e+01 -1.370895410970e+01 +7.656472720140e+01 -1.970354786034e-01 -1.331774167770e+01
 1.52000000e+01 -1.997045557540e-01 -1.337786108379e+01 -1.365413167489e+01 +7.647741660845e+01 -1.365413167489e+01 +7.647741660845e+01 -1.995750609044e-01 -1.340351486787e+01
 1.53000000e+01 -2.022594607082e-01 -1.346341823054e+01 -1.359970105070e+01 +7.639015371584e+01 -1.359970105070e+01 +7.639015371584e+01 -2.021299177602e-01 -1.348924247584e+01
 1.54000000e+01 -2.048296107814e-01 -1.354892957631e+01 -1.354565730226e+01 +7.630293873907e+01 -1.354565730226e+01 +7.630293873907e+01 -2.047000222734e-01 -1.357492424691e+01
 1.55000000e+01 -2.074149789691e-01 -1.363439486734e+01 -1.349199558998e+01 +7.621577189328e+01 -1.349199558998e+01 +7.621577189328e+01 -2.072853473925e-01 -1.366055992735e+01
 1.56000000e+01 -2.100155381130e-01 -1.371981385087e+01 -1.343871116703e+01 +7.612865339325e+01 -1.343871116703e+01 +7.612865339325e+01 -2.098858659135e-01 -1.374614926445e+01
 1.57000000e+01 -2.126312609023e-01 -1.380518627514e+01 -1.338579937695e+01 +7.604158345336e+01 -1.338579937695e+01 +7.604158345336e+01 -2.125015504812e-01 -1.383169200646e+01
 1.58000000e+01 -2.152621198755e-01 -1.389051188938e+01 -1.333325565144e+01 +7.595456228764e+01 -1.333325565144e+01 +7.595456228764e+01 -2.151323735918e-01 -1.391718790266e+01
 1.59000000e+01 -2.179080874222e-01 -1.397579044386e+01 -1.328107550802e+01 +7.586759010968e+01 -1.328107550802e+01 +7.586759010968e+01 -2.177783075928e-01 -1.400263670333e+01
 1.60000000e+01 -2.205691357840e-01 -1.406102168982e+01 -1.322925454796e+01 +7.578066713270e+01 -1.322925454796e+01 +7.578066713270e+01 -2.204393246855e-01 -1.408803815973e+01
 1.61000000e+01 -2.232452370567e-01 -1.414620537955e+01 -1.317778845414e+01 +7.569379356946e+01 -1.317778845414e+01 +7.569379356946e+01 -2.231153969266e-01 -1.417339202418e+01
 1.62000000e+01 -2.259363631913e-01 -1.423134126632e+01 -1.312667298906e+01 +7.560696963232e+01 -1.312667298906e+01 +7.560696963233e+01 -2.258064962292e-01 -1.425869804997e+01
 1.63000000e+01 -2.286424859960e-01 -1.431642910445e+01 -1.307590399283e+01 +7.552019553318e+01 -1.307590399283e+01 +7.552019553318e+01 -2.285125943646e-01 -1.434395599143e+01
 1.64000000e+01 -2.313635771372e-01 -1.440146864928e+01 -1.302547738132e+01 +7.543347148347e+01 -1.302547738132e+01 +7.543347148348e+01 -2.312336629632e-01 -1.442916560392e+01
 1.65000000e+01 -2.340996081412e-01 -1.448645965717e+01 -1.297538914428e+01 +7.534679769418e+01 -1.297538914428e+01 +7.534679769418e+01 -2.339696735170e-01 -1.451432664381e+01
 1.66000000e+01 -2.368505503956e-01 -1.457140188551e+01 -1.292563534357e+01 +7.526017437581e+01 -1.292563534357e+01 +7.526017437581e+01 -2.367205973798e-01 -1.459943886850e+01
 1.67000000e+01 -2.396163751509e-01 -1.465629509273e+01 -1.287621211140e+01 +7.517360173835e+01 -1.287621211139e+01 +7.517360173835e+01 -2.394864057692e-01 -1.468450203643e+01
 1.68000000e+01 -2.423970535216e-01 -1.474113903830e+01 -1.282711564867e+01 +7.508707999131e+01 -1.282711564867e+01 +7.508707999131e+01 -2.422670697685e-01 -1.476951590707e+01
 1.69000000e+01 -2.451925564880e-01 -1.482593348271e+01 -1.277834222333e+01 +7.500060934370e+01 -1.277834222333e+01 +7.500060934370e+01 -2.450625603268e-01 -1.485448024091e+01
 1.70000000e+01 -2.480028548973e-01 -1.491067818751e+01 -1.272988816880e+01 +7.491419000397e+01 -1.272988816880e+01 +7.491419000397e+01 -2.478728482615e-01 -1.493939479952e+01
 1.71000000e+01 -2.508279194650e-01 -1.499537291530e+01 -1.268174988242e+01 +7.482782218007e+01 -1.268174988242e+01 +7.482782218007e+01 -2.506979042593e-01 -1.502425934548e+01
 1.72000000e+01 -2.536677207764e-01 -1.508001742971e+01 -1.263392382396e+01 +7.474150607939e+01 -1.263392382396e+01 +7.474150607939e+01 -2.535376988772e-01 -1.510907364242e+01
 1.73000000e+01 -2.565222292881e-01 -1.516461149544e+01 -1.258640651416e+01 +7.465524190876e+01 -1.258640651416e+01 +7.465524190876e+01 -2.563922025447e-01 -1.519383745504e+01
 1.74000000e+01 -2.593914153289e-01 -1.524915487824e+01 -1.253919453336e+01 +7.456902987445e+01 -1.253919453336e+01 +7.456902987445e+01 -2.592613855638e-01 -1.527855054906e+01
 1.75000000e+01 -2.622752491015e-01 -1.533364734490e+01 -1.249228452007e+01 +7.448287018216e+01 -1.249228452007e+01 +7.448287018216e+01 -2.621452181117e-01 -1.536321269128e+01
 1.76000000e+01 -2.651737006837e-01 -1.541808866328e+01 -1.244567316971e+01 +7.439676303700e+01 -1.244567316971e+01 +7.439676303700e+01 -2.650436702412e-01 -1.544782364954e+01
 1.77000000e+01 -2.680867400300e-01 -1.550247860231e+01 -1.239935723325e+01 +7.431070864347e+01 -1.239935723325e+01 +7.431070864347e+01 -2.679567118823e-01 -1.553238319275e+01
 1.78000000e+01 -2.710143369724e-01 -1.558681693197e+01 -1.235333351601e+01 +7.422470720549e+01 -1.235333351601e+01 +7.422470720549e+01 -2.708843128435e-01 -1.561689109088e+01
 1.79000000e+01 -2.739564612220e-01 -1.567110342332e+01 -1.230759887641e+01 +7.413875892633e+01 -1.230759887641e+01 +7.413875892633e+01 -2.738264428133e-01 -1.570134711496e+01
 1.80000000e+01 -2.769130823703e-01 -1.575533784846e+01 -1.226215022480e+01 +7.405286400867e+01 -1.226215022480e+01 +7.405286400867e+01 -2.767830713605e-01 -1.578575103708e+01
 1.81000000e+01 -2.798841698905e-01 -1.583951998060e+01 -1.221698452230e+01 +7.396702265454e+01 -1.221698452230e+01 +7.396702265454e+01 -2.797541679369e-01 -1.587010263041e+01
 1.82000000e+01 -2.828696931386e-01 -1.592364959399e+01 -1.217209877966e+01 +7.388123506531e+01 -1.217209877966e+01 +7.388123506531e+01 -2.827397018775e-01 -1.595440166919e+01
 1.83000000e+01 -2.858696213549e-01 -1.600772646397e+01 -1.212749005621e+01 +7.379550144172e+01 -1.212749005621e+01 +7.379550144172e+01 -2.857396424020e-01 -1.603864792871e+01
 1.84000000e+01 -2.888839236650e-01 -1.609175036696e+01 -1.208315545878e+01 +7.370982198384e+01 -1.208315545878e+01 +7.370982198384e+01 -2.887539586162e-01 -1.612284118538e+01
 1.85000000e+01 -2.919125690812e-01 -1.617572108045e+01 -1.203909214064e+01 +7.362419689106e+01 -1.203909214064e+01 +7.362419689106e+01 -2.917826195134e-01 -1.620698121664e+01
 1.86000000e+01 -2.949555265038e-01 -1.625963838301e+01 -1.199529730055e+01 +7.353862636209e+01 -1.199529730055e+01 +7.353862636209e+01 -2.948255939748e-01 -1.629106780103e+01
 1.87000000e+01 -2.980127647222e-01 -1.634350205431e+01 -1.195176818175e+01 +7.345311059498e+01 -1.195176818175e+01 +7.345311059498e+01 -2.978828507718e-01 -1.637510071817e+01
 1.88000000e+01 -3.010842524162e-01 -1.642731187508e+01 -1.190850207099e+01 +7.336764978704e+01 -1.190850207099e+01 +7.336764978704e+01 -3.009543585661e-01 -1.645907974878e+01
 1.89000000e+01 -3.041699581572e-01 -1.651106762716e+01 -1.186549629767e+01 +7.328224413489e+01 -1.186549629767e+01 +7.328224413489e+01 -3.040400859120e-01 -1.654300467462e+01
 1.90000000e+01 -3.072698504095e-01 -1.659476909345e+01 -1.182274823286e+01 +7.319689383446e+01 -1.182274823286e+01 +7.319689383446e+01 -3.071400012569e-01 -1.662687527858e+01
 1.91000000e+01 -3.103838975311e-01 -1.667841605798e+01 -1.178025528848e+01 +7.311159908093e+01 -1.178025528848e+01 +7.311159908093e+01 -3.102540729426e-01 -1.671069134462e+01
 1.92000000e+01 -3.135120677756e-01 -1.676200830584e+01 -1.173801491642e+01 +7.302636006876e+01 -1.173801491642e+01 +7.302636006876e+01 -3.133822692067e-01 -1.679445265779e+01
 1.93000000e+01 -3.166543292929e-01 -1.684554562322e+01 -1.169602460772e+01 +7.294117699166e+01 -1.169602460772e+01 +7.294117699166e+01 -3.165245581834e-01 -1.687815900423e+01
 1.94000000e+01 -3.198106501304e-01 -1.692902779741e+01 -1.165428189175e+01 +7.285605004263e+01 -1.165428189175e+01 +7.285605004263e+01 -3.196809079050e-01 -1.696181017118e+01
 1.95000000e+01 -3.229809982342e-01 -1.701245461680e+01 -1.161278433541e+01 +7.277097941388e+01 -1.161278433541e+01 +7.277097941388e+01 -3.228512863032e-01 -1.704540594697e+01
 1.96000000e+01 -3.261653414507e-01 -1.709582587088e+01 -1.157152954239e+01 +7.268596529687e+01 -1.157152954239e+01 +7.268596529687e+01 -3.260356612095e-01 -1.712894612103e+01
 1.97000000e+01 -3.293636475271e-01 -1.717914135022e+01 -1.153051515239e+01 +7.260100788231e+01 -1.153051515239e+01 +7.260100788231e+01 -3.292340003576e-01 -1.721243048389e+01
 1.98000000e+01 -3.325758841130e-01 -1.726240084651e+01 -1.148973884042e+01 +7.251610736013e+01 -1.148973884042e+01 +7.251610736013e+01 -3.324462713832e-01 -1.729585882716e+01
 1.99000000e+01 -3.358020187615e-01 -1.734560415255e+01 -1.144919831606e+01 +7.243126391945e+01 -1.144919831606e+01 +7.243126391945e+01 -3.356724418261e-01 -1.737923094359e+01
 2.00000000e+01 -3.390420189303e-01 -1.742875106222e+01 -1.140889132275e+01 +7.234647774866e+01 -1.140889132275e+01 +7.234647774866e+01 -3.389124791310e-01 -1.746254662699e+01
