#  GHZ S DB R 50
 1.00000000e-02 -4.784576891346e-08 -2.331437840391e-03 -9.171451931190e+01 +8.999783581629e+01 -9.171451931218e+01 +8.999783581772e+01 -4.286242058883e-08 -2.133394423011e-03
 2.00000000e-02 -7.315328500208e-08 -4.662873552411e-03 -8.569392739408e+01 +8.999643752521e+01 -8.569392739406e+01 +8.999643752487e+01 -5.591460738775e-08 -4.266792566520e-03
 1.00000000e-01 -8.929556906411e-07 -2.331423751506e-02 -7.171450151036e+01 +8.998330987767e+01 -7.171450151037e+01 +8.998330987762e+01 -4.819145827504e-07 -2.133394584965e-02
 2.00000000e-01 -3.453971785759e-06 -4.662781807140e-02 -6.569381510669e+01 +8.996663121536e+01 -6.569381510670e+01 +8.996663121540e+01 -1.819665789077e-06 -4.266777037481e-02
 3.00000000e-01 -7.700814890052e-06 -6.994011116095e-02 -6.217185162640e+01 +8.994984927630e+01 -6.217185162640e+01 +8.994984927631e+01 -4.049197293037e-06 -6.400130713175e-02
 4.00000000e-01 -1.359937599734e-05 -9.325050948317e-02 -5.967288840894e+01 +8.993294695078e+01 -5.967288840894e+01 +8.993294695078e+01 -7.162548659445e-06 -8.533440484536e-02
 5.00000000e-01 -2.110386808350e-05 -1.165584597472e-01 -5.773445217646e+01 +8.991589633617e+01 -5.773445217646e+01 +8.991589633618e+01 -1.114944593466e-05 -1.066669313125e-01
 6.00000000e-01 -3.015919271039e-05 -1.398634745374e-01 -5.615054734751e+01 +8.989867125062e+01 -5.615054734751e+01 +8.989867125062e+01 -1.599793831499e-05 -1.279987692342e-01
 7.00000000e-01 -4.070363167484e-05 -1.631651390318e-01 -5.481129178523e+01 +8.988125013031e+01 -5.481129178523e+01 +8.988125013033e+01 -2.169474408045e-05 -1.493298158929e-01
 8.00000000e-01 -5.267150187660e-05 -1.864631124368e-01 -5.365109753366e+01 +8.986361670340e+01 -5.365109753365e+01 +8.986361670339e+01 -2.822565436821e-05 -1.706599831926e-01
 9.00000000e-01 -6.599551245052e-05 -2.097571248732e-01 -5.262766057524e+01 +8.984575981948e+01 -5.262766057524e+01 +8.984575981947e+01 -3.557592870918e-05 -1.919891971980e-01
 1.00000000e+00 -8.060865809350e-05 -2.330469710982e-01 -5.171209726554e+01 +8.982767287749e+01 -5.171209726554e+01 +8.982767287747e+01 -4.373063325345e-05 -2.133173972194e-01
 1.10000000e+00 -9.644559887760e-05 -2.563325025642e-01 -5.088380703916e+01 +8.980935308088e+01 -5.088380703916e+01 +8.980935308088e+01 -5.267490603974e-05 -2.346445346065e-01
 1.20000000e+00 -1.134435656067e-04 -2.796136190735e-01 -5.012757993244e+01 +8.979080066469e+01 -5.012757993244e+01 +8.979080066471e+01 -6.239415106021e-05 -2.559705714522e-01
 1.30000000e+00 -1.315428798588e-04 -3.028902608836e-01 -4.943186588134e+01 +8.977201818105e+01 -4.943186588134e+01 +8.977201818106e+01 -7.287417223439e-05 -2.772954793139e-01
 1.40000000e+00 -1.506871904473e-04 -3.261624017373e-01 -4.878768724985e+01 +8.975300988727e+01 -4.878768724985e+01 +8.975300988726e+01 -8.410126065500e-05 -2.986192380362e-01
 1.50000000e+00 -1.708235211657e-04 -3.494300429876e-01 -4.818792746545e+01 +8.973378125076e+01 -4.818792746546e+01 +8.973378125075e+01 -9.606224853461e-05 -3.199418347025e-01
 1.60000000e+00 -1.919022052924e-04 -3.726932087937e-01 -4.762684972063e+01 +8.971433856577e+01 -4.762684972063e+01 +8.971433856577e+01 -1.087445397116e-04 -3.412632627212e-01
 1.70000000e+00 -2.138767620075e-04 -3.959519422546e-01 -4.709976185398e+01 +8.969468866681e+01 -4.709976185398e+01 +8.969468866680e+01 -1.221361253805e-04 -3.625835210382e-01
 1.80000000e+00 -2.367037503576e-04 -4.192063023092e-01 -4.660277717255e+01 +8.967483872067e+01 -4.660277717255e+01 +8.967483872066e+01 -1.362255900878e-04 -3.839026134518e-01
 1.90000000e+00 -2.603426216810e-04 -4.424563612286e-01 -4.613264003291e+01 +8.965479607856e+01 -4.613264003291e+01 +8.965479607855e+01 -1.510021118144e-04 -4.052205480202e-01
 2.00000000e+00 -2.847555810395e-04 -4.657022025518e-01 -4.568659621709e+01 +8.963456817257e+01 -4.568659621709e+01 +8.963456817257e+01 -1.664554582860e-04 -4.265373365367e-01
 2.10000000e+00 -3.099074607404e-04 -4.889439193424e-01 -4.526229497000e+01 +8.961416244346e+01 -4.526229497000e+01 +8.961416244346e+01 -1.825759807472e-04 -4.478529940635e-01
 2.20000000e+00 -3.357656060191e-04 -5.121816126798e-01 -4.485771384874e+01 +8.959358629006e+01 -4.485771384874e+01 +8.959358629006e+01 -1.993546057059e-04 -4.691675385094e-01
 2.30000000e+00 -3.622997701238e-04 -5.354153903208e-01 -4.447110029200e+01 +8.957284703303e+01 -4.447110029200e+01 +8.957284703303e+01 -2.167828252052e-04 -4.904809902473e-01
 2.40000000e+00 -3.894820163856e-04 -5.586453654900e-01 -4.410092563512e+01 +8.955195188820e+01 -4.410092563512e+01 +8.955195188819e+01 -2.348526857485e-04 -5.117933717606e-01
 2.50000000e+00 -4.172866240818e-04 -5.818716557755e-01 -4.374584851936e+01 +8.953090794608e+01 -4.374584851936e+01 +8.953090794608e+01 -2.535567752896e-04 -5.331047073191e-01
 2.60000000e+00 -4.456899965064e-04 -6.050943821129e-01 -4.340468548266e+01 +8.950972215541e+01 -4.340468548266e+01 +8.950972215542e+01 -2.728882095526e-04 -5.544150226786e-01
 2.70000000e+00 -4.746705691514e-04 -6.283136678504e-01 -4.307638710431e+01 +8.948840130957e+01 -4.307638710431e+01 +8.948840130955e+01 -2.928406164003e-04 -5.757243448034e-01
 2.80000000e+00 -5.042087175172e-04 -6.515296378918e-01 -4.276001849076e+01 +8.946695203495e+01 -4.276001849075e+01 +8.946695203495e+01 -3.134081193419e-04 -5.970327016108e-01
 2.90000000e+00 -5.342866640584e-04 -6.747424179139e-01 -4.245474318782e+01 +8.944538078121e+01 -4.245474318782e+01 +8.944538078122e+01 -3.345853198316e-04 -6.183401217356e-01
 3.00000000e+00 -5.648883841816e-04 -6.979521336581e-01 -4.215980982193e+01 +8.942369381282e+01 -4.215980982193e+01 +8.942369381281e+01 -3.563672783970e-04 -6.396466343152e-01
 3.10000000e+00 -5.959995116708e-04 -7.211589102949e-01 -4.187454093317e+01 +8.940189720197e+01 -4.187454093317e+01 +8.940189720197e+01 -3.787494954034e-04 -6.609522687933e-01
 3.20000000e+00 -6.276072441273e-04 -7.443628718583e-01 -4.159832358230e+01 +8.937999682306e+01 -4.159832358230e+01 +8.937999682307e+01 -4.017278907784e-04 -6.822570547432e-01
 3.30000000e+00 -6.597002488533e-04 -7.675641407490e-01 -4.133060140402e+01 +8.935799834825e+01 -4.133060140402e+01 +8.935799834825e+01 -4.252987836312e-04 -7.035610217073e-01
 3.40000000e+00 -6.922685698720e-04 -7.907628373033e-01 -4.107086784739e+01 +8.933590724442e+01 -4.107086784739e+01 +8.933590724442e+01 -4.494588712584e-04 -7.248641990564e-01
 3.50000000e+00 -7.253035364946e-04 -8.139590794223e-01 -4.081866039665e+01 +8.931372877130e+01 -4.081866039665e+01 +8.931372877130e+01 -4.742052086349e-04 -7.461666158627e-01
 3.60000000e+00 -7.587976742489e-04 -8.371529822602e-01 -4.057355560674e+01 +8.929146798091e+01 -4.057355560674e+01 +8.929146798090e+01 -4.995351873206e-04 -7.674683007896e-01
 3.70000000e+00 -7.927446183345e-04 -8.603446579656e-01 -4.033516481939e+01 +8.926912971784e+01 -4.033516481939e+01 +8.926912971784e+01 -5.254465151647e-04 -7.887692819958e-01
 3.80000000e+00 -8.271390302997e-04 -8.835342154713e-01 -4.010313045099e+01 +8.924671862082e+01 -4.010313045099e+01 +8.924671862081e+01 -5.519371959814e-04 -8.100695870532e-01
 3.90000000e+00 -8.619765178160e-04 -9.067217603291e-01 -3.987712276284e+01 +8.922423912487e+01 -3.987712276284e+01 +8.922423912487e+01 -5.790055100129e-04 -8.313692428765e-01
 4.00000000e+00 -8.972535581868e-04 -9.299073945855e-01 -3.965683704063e+01 +8.920169546461e+01 -3.965683704063e+01 +8.920169546460e+01 -6.066499945878e-04 -8.526682756649e-01
 4.10000000e+00 -9.329674256941e-04 -9.530912166922e-01 -3.944199112238e+01 +8.917909167789e+01 -3.944199112238e+01 +8.917909167788e+01 -6.348694256781e-04 -8.739667108548e-01
 4.20000000e+00 -9.691161224059e-04 -9.762733214494e-01 -3.923232322446e+01 +8.915643161032e+01 -3.923232322446e+01 +8.915643161031e+01 -6.636628001997e-04 -8.952645730814e-01
 4.30000000e+00 -1.005698313332e-03 -9.994537999770e-01 -3.902759002358e+01 +8.913371892010e+01 -3.902759002358e+01 +8.913371892011e+01 -6.930293187399e-04 -9.165618861493e-01
 4.40000000e+00 -1.042713265007e-03 -1.022632739711e+00 -3.882756495932e+01 +8.911095708340e+01 -3.882756495932e+01 +8.911095708340e+01 -7.229683693581e-04 -9.378586730112e-01
 4.50000000e+00 -1.080160788240e-03 -1.045810224420e+00 -3.863203672760e+01 +8.908814939990e+01 -3.863203672760e+01 +8.908814939990e+01 -7.534795119768e-04 -9.591549557532e-01
 4.60000000e+00 -1.118041184320e-03 -1.068986334241e+00 -3.844080793978e+01 +8.906529899872e+01 -3.844080793978e+01 +8.906529899872e+01 -7.845624637754e-04 -9.804507555869e-01
 4.70000000e+00 -1.156355195026e-03 -1.092161145732e+00 -3.825369392596e+01 +8.904240884449e+01 -3.825369392596e+01 +8.904240884448e+01 -8.162170852334e-04 -1.001746092847e+00
 4.80000000e+00 -1.195103956155e-03 -1.115334731936e+00 -3.807052166440e+01 +8.901948174345e+01 -3.807052166440e+01 +8.901948174345e+01 -8.484433669750e-04 -1.023040986992e+00
 4.90000000e+00 -1.234288954240e-03 -1.138507162453e+00 -3.789112882131e+01 +8.899652034975e+01 -3.789112882131e+01 +8.899652034975e+01 -8.812414175310e-04 -1.044335456612e+00
 5.00000000e+00 -1.273911986806e-03 -1.161678503532e+00 -3.771536288766e+01 +8.897352717163e+01 -3.771536288766e+01 +8.897352717164e+01 -9.146114517236e-04 -1.065629519440e+00
 5.10000000e+00 -1.313975125293e-03 -1.184848818153e+00 -3.754308040153e+01 +8.895050457767e+01 -3.754308040153e+01 +8.895050457767e+01 -9.485537799267e-04 -1.086923192362e+00
 5.20000000e+00 -1.354480681314e-03 -1.208018166132e+00 -3.737414624587e+01 +8.892745480288e+01 -3.737414624587e+01 +8.892745480289e+01 -9.830687979807e-04 -1.108216491435e+00
 5.30000000e+00 -1.395431175278e-03 -1.231186604219e+00 -3.720843301331e+01 +8.890437995484e+01 -3.720843301331e+01 +8.890437995484e+01 -1.018156977795e-03 -1.129509431903e+00
 5.40000000e+00 -1.436829307899e-03 -1.254354186200e+00 -3.704582043018e+01 +8.888128201951e+01 -3.704582043018e+01 +8.888128201951e+01 -1.053818858808e-03 -1.150802028222e+00
 5.50000000e+00 -1.478677933915e-03 -1.277520963010e+00 -3.688619483348e+01 +8.885816286716e+01 -3.688619483348e+01 +8.885816286715e+01 -1.090055039675e-03 -1.172094294074e+00
 5.60000000e+00 -1.520980038253e-03 -1.300686982833e+00 -3.672944869491e+01 +8.883502425788e+01 -3.672944869491e+01 +8.883502425788e+01 -1.126866171129e-03 -1.193386242396e+00
 5.70000000e+00 -1.563738714154e-03 -1.323852291214e+00 -3.657548018705e+01 +8.881186784716e+01 -3.657548018705e+01 +8.881186784716e+01 -1.164252948921e-03 -1.214677885398e+00
 5.80000000e+00 -1.606957143454e-03 -1.347016931164e+00 -3.642419278720e+01 +8.878869519111e+01 -3.642419278720e+01 +8.878869519111e+01 -1.202216107563e-03 -1.235969234593e+00
 5.90000000e+00 -1.650638578533e-03 -1.370180943267e+00 -3.627549491515e+01 +8.876550775159e+01 -3.627549491515e+01 +8.876550775159e+01 -1.240756414620e-03 -1.257260300815e+00
 6.00000000e+00 -1.694786326112e-03 -1.393344365785e+00 -3.612929960132e+01 +8.874230690115e+01 -3.612929960132e+01 +8.874230690115e+01 -1.279874665316e-03 -1.278551094249e+00
 6.10000000e+00 -1.739403732527e-03 -1.416507234759e+00 -3.598552418231e+01 +8.871909392774e+01 -3.598552418231e+01 +8.871909392774e+01 -1.319571677720e-03 -1.299841624452e+00
 6.20000000e+00 -1.784494170624e-03 -1.439669584113e+00 -3.584409002120e+01 +8.869587003923e+01 -3.584409002119e+01 +8.869587003923e+01 -1.359848288417e-03 -1.321131900381e+00
 6.30000000e+00 -1.830061027716e-03 -1.462831445745e+00 -3.570492225025e+01 +8.867263636781e+01 -3.570492225025e+01 +8.867263636781e+01 -1.400705348247e-03 -1.342421930414e+00
 6.40000000e+00 -1.876107695085e-03 -1.485992849629e+00 -3.556794953379e+01 +8.864939397407e+01 -3.556794953379e+01 +8.864939397407e+01 -1.442143719016e-03 -1.363711722377e+00
 6.50000000e+00 -1.922637558531e-03 -1.509153823906e+00 -3.543310384950e+01 +8.862614385104e+01 -3.543310384950e+01 +8.862614385103e+01 -1.484164269864e-03 -1.385001283563e+00
 6.60000000e+00 -1.969653989819e-03 -1.532314394970e+00 -3.530032028638e+01 +8.860288692789e+01 -3.530032028638e+01 +8.860288692789e+01 -1.526767874471e-03 -1.406290620764e+00
 6.70000000e+00 -2.017160339383e-03 -1.555474587558e+00 -3.516953685787e+01 +8.857962407363e+01 -3.516953685787e+01 +8.857962407363e+01 -1.569955408390e-03 -1.427579740283e+00
 6.80000000e+00 -2.065159929621e-03 -1.578634424830e+00 -3.504069432882e+01 +8.855635610045e+01 -3.504069432882e+01 +8.855635610044e+01 -1.613727746514e-03 -1.448868647964e+00
 6.90000000e+00 -2.113656049092e-03 -1.601793928451e+00 -3.491373605509e+01 +8.853308376702e+01 -3.491373605509e+01 +8.853308376702e+01 -1.658085761068e-03 -1.470157349209e+00
 7.00000000e+00 -2.162651947675e-03 -1.624953118666e+00 -3.478860783465e+01 +8.850980778159e+01 -3.478860783465e+01 +8.850980778159e+01 -1.703030319518e-03 -1.491445849003e+00
 7.10000000e+00 -2.212150831970e-03 -1.648112014377e+00 -3.466525776922e+01 +8.848652880490e+01 -3.466525776922e+01 +8.848652880490e+01 -1.748562283142e-03 -1.512734151928e+00
 7.20000000e+00 -2.262155861677e-03 -1.671270633210e+00 -3.454363613563e+01 +8.846324745298e+01 -3.454363613563e+01 +8.846324745298e+01 -1.794682505167e-03 -1.534022262189e+00
 7.30000000e+00 -2.312670146320e-03 -1.694428991582e+00 -3.442369526597e+01 +8.843996429978e+01 -3.442369526597e+01 +8.843996429978e+01 -1.841391829817e-03 -1.555310183626e+00
 7.40000000e+00 -2.363696742642e-03 -1.717587104768e+00 -3.430538943591e+01 +8.841667987965e+01 -3.430538943591e+01 +8.841667987965e+01 -1.888691090890e-03 -1.576597919740e+00
 7.50000000e+00 -2.415238652206e-03 -1.740744986964e+00 -3.418867476056e+01 +8.839339468974e+01 -3.418867476056e+01 +8.839339468974e+01 -1.936581110817e-03 -1.597885473702e+00
 7.60000000e+00 -2.467298819663e-03 -1.763902651338e+00 -3.407350909710e+01 +8.837010919219e+01 -3.407350909710e+01 +8.837010919219e+01 -1.985062699949e-03 -1.619172848373e+00
 7.70000000e+00 -2.519880131272e-03 -1.787060110095e+00 -3.395985195388e+01 +8.834682381626e+01 -3.395985195388e+01 +8.834682381626e+01 -2.034136655573e-03 -1.640460046324e+00
 7.80000000e+00 -2.572985413687e-03 -1.810217374524e+00 -3.384766440532e+01 +8.832353896032e+01 -3.384766440532e+01 +8.832353896032e+01 -2.083803761456e-03 -1.661747069844e+00
 7.90000000e+00 -2.626617433179e-03 -1.833374455050e+00 -3.373690901222e+01 +8.830025499372e+01 -3.373690901222e+01 +8.830025499372e+01 -2.134064787314e-03 -1.683033920959e+00
 8.00000000e+00 -2.680778895066e-03 -1.856531361286e+00 -3.362754974707e+01 +8.827697225860e+01 -3.362754974707e+01 +8.827697225860e+01 -2.184920488252e-03 -1.704320601444e+00
 8.10000000e+00 -2.735472443314e-03 -1.879688102071e+00 -3.351955192405e+01 +8.825369107150e+01 -3.351955192405e+01 +8.825369107150e+01 -2.236371604629e-03 -1.725607112838e+00
 8.20000000e+00 -2.790700660514e-03 -1.902844685519e+00 -3.341288213325e+01 +8.823041172499e+01 -3.341288213325e+01 +8.823041172499e+01 -2.288418861617e-03 -1.746893456454e+00
 8.30000000e+00 -2.846466067778e-03 -1.926001119061e+00 -3.330750817887e+01 +8.820713448916e+01 -3.330750817887e+01 +8.820713448916e+01 -2.341062969079e-03 -1.768179633395e+00
 8.40000000e+00 -2.902771125166e-03 -1.949157409478e+00 -3.320339902121e+01 +8.818385961298e+01 -3.320339902121e+01 +8.818385961298e+01 -2.394304621467e-03 -1.789465644561e+00
 8.50000000e+00 -2.959618231899e-03 -1.972313562944e+00 -3.310052472194e+01 +8.816058732566e+01 -3.310052472194e+01 +8.816058732566e+01 -2.448144497660e-03 -1.810751490663e+00
 8.60000000e+00 -3.017009726984e-03 -1.995469585058e+00 -3.299885639269e+01 +8.813731783785e+01 -3.299885639269e+01 +8.813731783785e+01 -2.502583261021e-03 -1.832037172232e+00
 8.70000000e+00 -3.074947889758e-03 -2.018625480878e+00 -3.289836614654e+01 +8.811405134287e+01 -3.289836614654e+01 +8.811405134287e+01 -2.557621559330e-03 -1.853322689628e+00
 8.80000000e+00 -3.133434940590e-03 -2.041781254951e+00 -3.279902705232e+01 +8.809078801774e+01 -3.279902705232e+01 +8.809078801774e+01 -2.613260024957e-03 -1.874608043054e+00
 8.90000000e+00 -3.192473041791e-03 -2.064936911345e+00 -3.270081309144e+01 +8.806752802431e+01 -3.270081309144e+01 +8.806752802430e+01 -2.669499274795e-03 -1.895893232556e+00
 9.00000000e+00 -3.252064298315e-03 -2.088092453676e+00 -3.260369911715e+01 +8.804427151010e+01 -3.260369911715e+01 +8.804427151010e+01 -2.726339910553e-03 -1.917178258043e+00
 9.10000000e+00 -3.312210758891e-03 -2.111247885133e+00 -3.250766081609e+01 +8.802101860936e+01 -3.250766081609e+01 +8.802101860936e+01 -2.783782518756e-03 -1.938463119284e+00
 9.20000000e+00 -3.372914416855e-03 -2.134403208507e+00 -3.241267467184e+01 +8.799776944383e+01 -3.241267467184e+01 +8.799776944383e+01 -2.841827671021e-03 -1.959747815923e+00
 9.30000000e+00 -3.434177211219e-03 -2.157558426210e+00 -3.231871793056e+01 +8.797452412360e+01 -3.231871793056e+01 +8.797452412360e+01 -2.900475924155e-03 -1.981032347482e+00
 9.40000000e+00 -3.496001027742e-03 -2.180713540301e+00 -3.222576856835e+01 +8.795128274784e+01 -3.222576856835e+01 +8.795128274785e+01 -2.959727820467e-03 -2.002316713371e+00
 9.50000000e+00 -3.558387700064e-03 -2.203868552505e+00 -3.213380526039e+01 +8.792804540557e+01 -3.213380526039e+01 +8.792804540557e+01 -3.019583887925e-03 -2.023600912892e+00
 9.60000000e+00 -3.621339010737e-03 -2.227023464235e+00 -3.204280735172e+01 +8.790481217623e+01 -3.204280735172e+01 +8.790481217623e+01 -3.080044640376e-03 -2.044884945246e+00
 9.70000000e+00 -3.684856692391e-03 -2.250178276610e+00 -3.195275482947e+01 +8.788158313043e+01 -3.195275482947e+01 +8.788158313043e+01 -3.141110577864e-03 -2.066168809539e+00
 9.80000000e+00 -3.748942428868e-03 -2.273332990472e+00 -3.186362829655e+01 +8.785835833046e+01 -3.186362829655e+01 +8.785835833046e+01 -3.202782186861e-03 -2.087452504788e+00
 9.90000000e+00 -3.813597856383e-03 -2.296487606403e+00 -3.177540894666e+01 +8.783513783089e+01 -3.177540894666e+01 +8.783513783089e+01 -3.265059940469e-03 -2.108736029923e+00
 1.00000000e+01 -3.878824564642e-03 -2.319642124742e+00 -3.168807854057e+01 +8.781192167907e+01 -3.168807854057e+01 +8.781192167907e+01 -3.327944298743e-03 -2.130019383796e+00
 1.01000000e+01 -3.944624097923e-03 -2.342796545600e+00 -3.160161938356e+01 +8.778870991561e+01 -3.160161938356e+01 +8.778870991560e+01 -3.391435708986e-03 -2.151302565186e+00
 1.02000000e+01 -4.010997956358e-03 -2.365950868871e+00 -3.151601430398e+01 +8.776550257488e+01 -3.151601430398e+01 +8.776550257488e+01 -3.455534605966e-03 -2.172585572797e+00
 1.03000000e+01 -4.077947596986e-03 -2.389105094252e+00 -3.143124663284e+01 +8.774229968542e+01 -3.143124663284e+01 +8.774229968542e+01 -3.520241412209e-03 -2.193868405270e+00
 1.04000000e+01 -4.145474434746e-03 -2.412259221248e+00 -3.134730018443e+01 +8.771910127033e+01 -3.134730018443e+01 +8.771910127033e+01 -3.585556538332e-03 -2.215151061182e+00
 1.05000000e+01 -4.213579843862e-03 -2.435413249188e+00 -3.126415923778e+01 +8.769590734769e+01 -3.126415923778e+01 +8.769590734769e+01 -3.651480383180e-03 -2.236433539051e+00
 1.06000000e+01 -4.282265158668e-03 -2.458567177237e+00 -3.118180851909e+01 +8.767271793086e+01 -3.118180851909e+01 +8.767271793086e+01 -3.718013334312e-03 -2.257715837340e+00
 1.07000000e+01 -4.351531674824e-03 -2.481721004402e+00 -3.110023318495e+01 +8.764953302888e+01 -3.110023318495e+01 +8.764953302888e+01 -3.785155768106e-03 -2.278997954460e+00
 1.08000000e+01 -4.421380650280e-03 -2.504874729548e+00 -3.101941880629e+01 +8.762635264674e+01 -3.101941880629e+01 +8.762635264674e+01 -3.852908050004e-03 -2.300279888773e+00
 1.09000000e+01 -4.491813306473e-03 -2.528028351402e+00 -3.093935135316e+01 +8.760317678568e+01 -3.093935135316e+01 +8.760317678567e+01 -3.921270534982e-03 -2.321561638596e+00
 1.10000000e+01 -4.562830829173e-03 -2.551181868566e+00 -3.086001718011e+01 +8.758000544348e+01 -3.086001718011e+01 +8.758000544347e+01 -3.990243567628e-03 -2.342843202199e+00
 1.11000000e+01 -4.634434369584e-03 -2.574335279522e+00 -3.078140301234e+01 +8.755683861470e+01 -3.078140301234e+01 +8.755683861470e+01 -4.059827482510e-03 -2.364124577817e+00
 1.12000000e+01 -4.706625045270e-03 -2.597488582642e+00 -3.070349593233e+01 +8.753367629096e+01 -3.070349593233e+01 +8.753367629096e+01 -4.130022604332e-03 -2.385405763642e+00
 1.13000000e+01 -4.779403941198e-03 -2.620641776193e+00 -3.062628336721e+01 +8.751051846112e+01 -3.062628336721e+01 +8.751051846112e+01 -4.200829248308e-03 -2.406686757833e+00
 1.14000000e+01 -4.852772110572e-03 -2.643794858347e+00 -3.054975307658e+01 +8.748736511151e+01 -3.054975307658e+01 +8.748736511151e+01 -4.272247720322e-03 -2.427967558516e+00
 1.15000000e+01 -4.926730575809e-03 -2.666947827187e+00 -3.047389314089e+01 +8.746421622615e+01 -3.047389314089e+01 +8.746421622615e+01 -4.344278317223e-03 -2.449248163782e+00
 1.16000000e+01 -5.001280329396e-03 -2.690100680710e+00 -3.039869195036e+01 +8.744107178691e+01 -3.039869195036e+01 +8.744107178691e+01 -4.416921327028e-03 -2.470528571697e+00
 1.17000000e+01 -5.076422334845e-03 -2.713253416836e+00 -3.032413819435e+01 +8.741793177370e+01 -3.032413819435e+01 +8.741793177370e+01 -4.490177029174e-03 -2.491808780296e+00
 1.18000000e+01 -5.152157527435e-03 -2.736406033412e+00 -3.025022085115e+01 +8.739479616463e+01 -3.025022085115e+01 +8.739479616463e+01 -4.564045694822e-03 -2.513088787589e+00
 1.19000000e+01 -5.228486815080e-03 -2.759558528219e+00 -3.017692917821e+01 +8.737166493615e+01 -3.017692917821e+01 +8.737166493615e+01 -4.638527586918e-03 -2.534368591564e+00
 1.20000000e+01 -5.305411079200e-03 -2.782710898973e+00 -3.010425270288e+01 +8.734853806323e+01 -3.010425270288e+01 +8.734853806323e+01 -4.713622960562e-03 -2.555648190183e+00
 1.21000000e+01 -5.382931175368e-03 -2.805863143335e+00 -3.003218121336e+01 +8.732541551944e+01 -3.003218121336e+01 +8.732541551944e+01 -4.789332063149e-03 -2.576927581388e+00
 1.22000000e+01 -5.461047934241e-03 -2.829015258909e+00 -2.996070475017e+01 +8.730229727713e+01 -2.996070475017e+01 +8.730229727713e+01 -4.865655134591e-03 -2.598206763104e+00
 1.23000000e+01 -5.539762162156e-03 -2.852167243250e+00 -2.988981359788e+01 +8.727918330752e+01 -2.988981359788e+01 +8.727918330752e+01 -4.942592407575e-03 -2.619485733233e+00
 1.24000000e+01 -5.619074641943e-03 -2.875319093870e+00 -2.981949827722e+01 +8.725607358080e+01 -2.981949827722e+01 +8.725607358080e+01 -5.020144107630e-03 -2.640764489662e+00
 1.25000000e+01 -5.698986133557e-03 -2.898470808234e+00 -2.974974953749e+01 +8.723296806626e+01 -2.974974953749e+01 +8.723296806626e+01 -5.098310453469e-03 -2.662043030263e+00
 1.26000000e+01 -5.779497374871e-03 -2.921622383771e+00 -2.968055834929e+01 +8.720986673236e+01 -2.968055834929e+01 +8.720986673236e+01 -5.177091657141e-03 -2.683321352892e+00
 1.27000000e+01 -5.860609082191e-03 -2.944773817872e+00 -2.961191589748e+01 +8.718676954684e+01 -2.961191589748e+01 +8.718676954684e+01 -5.256487924147e-03 -2.704599455391e+00
 1.28000000e+01 -5.942321951024e-03 -2.967925107898e+00 -2.954381357450e+01 +8.716367647680e+01 -2.954381357450e+01 +8.716367647680e+01 -5.336499453627e-03 -2.725877335588e+00
 1.29000000e+01 -6.024636656597e-03 -2.991076251175e+00 -2.947624297388e+01 +8.714058748875e+01 -2.947624297388e+01 +8.714058748875e+01 -5.417126438620e-03 -2.747154991301e+00
 1.30000000e+01 -6.107553854562e-03 -3.014227245006e+00 -2.940919588405e+01 +8.711750254873e+01 -2.940919588405e+01 +8.711750254873e+01 -5.498369066226e-03 -2.768432420337e+00
 1.31000000e+01 -6.191074181522e-03 -3.037378086665e+00 -2.934266428235e+01 +8.709442162234e+01 -2.934266428235e+01 +8.709442162234e+01 -5.580227517619e-03 -2.789709620490e+00
 1.32000000e+01 -6.275198255594e-03 -3.060528773405e+00 -2.927664032928e+01 +8.707134467482e+01 -2.927664032928e+01 +8.707134467482e+01 -5.662701968387e-03 -2.810986589546e+00
 1.33000000e+01 -6.359926677012e-03 -3.083679302459e+00 -2.921111636298e+01 +8.704827167111e+01 -2.921111636298e+01 +8.704827167111e+01 -5.745792588668e-03 -2.832263325284e+00
 1.34000000e+01 -6.445260028561e-03 -3.106829671038e+00 -2.914608489389e+01 +8.702520257590e+01 -2.914608489389e+01 +8.702520257590e+01 -5.829499543106e-03 -2.853539825472e+00
 1.35000000e+01 -6.531198876269e-03 -3.129979876340e+00 -2.908153859966e+01 +8.700213735368e+01 -2.908153859966e+01 +8.700213735368e+01 -5.913822991236e-03 -2.874816087873e+00
 1.36000000e+01 -6.617743769723e-03 -3.153129915544e+00 -2.901747032016e+01 +8.697907596878e+01 -2.901747032016e+01 +8.697907596878e+01 -5.998763087540e-03 -2.896092110240e+00
 1.37000000e+01 -6.704895242640e-03 -3.176279785818e+00 -2.895387305277e+01 +8.695601838543e+01 -2.895387305277e+01 +8.695601838543e+01 -6.084319981561e-03 -2.917367890322e+00
 1.38000000e+01 -6.792653813376e-03 -3.199429484318e+00 -2.889073994778e+01 +8.693296456782e+01 -2.889073994778e+01 +8.693296456782e+01 -6.170493818023e-03 -2.938643425862e+00
 1.39000000e+01 -6.881019985319e-03 -3.222579008187e+00 -2.882806430396e+01 +8.690991448006e+01 -2.882806430396e+01 +8.690991448006e+01 -6.257284736994e-03 -2.959918714598e+00
 1.40000000e+01 -6.969994247343e-03 -3.245728354563e+00 -2.876583956433e+01 +8.688686808632e+01 -2.876583956433e+01 +8.688686808632e+01 -6.344692874081e-03 -2.981193754262e+00
 1.41000000e+01 -7.059577074282e-03 -3.268877520571e+00 -2.870405931201e+01 +8.686382535079e+01 -2.870405931201e+01 +8.686382535078e+01 -6.432718360379e-03 -3.002468542583e+00
 1.42000000e+01 -7.149768927266e-03 -3.292026503335e+00 -2.864271726629e+01 +8.684078623771e+01 -2.864271726629e+01 +8.684078623771e+01 -6.521361322795e-03 -3.023743077285e+00
 1.43000000e+01 -7.240570254207e-03 -3.315175299968e+00 -2.858180727882e+01 +8.681775071146e+01 -2.858180727882e+01 +8.681775071146e+01 -6.610621883946e-03 -3.045017356089e+00
 1.44000000e+01 -7.331981490139e-03 -3.338323907582e+00 -2.852132332987e+01 +8.679471873651e+01 -2.852132332987e+01 +8.679471873651e+01 -6.700500162505e-03 -3.066291376713e+00
 1.45000000e+01 -7.424003057605e-03 -3.361472323284e+00 -2.846125952481e+01 +8.677169027750e+01 -2.846125952481e+01 +8.677169027749e+01 -6.790996273054e-03 -3.087565136871e+00
 1.46000000e+01 -7.516635367019e-03 -3.384620544180e+00 -2.840161009064e+01 +8.674866529923e+01 -2.840161009064e+01 +8.674866529922e+01 -6.882110326511e-03 -3.108838634278e+00
 1.47000000e+01 -7.609878817050e-03 -3.407768567371e+00 -2.834236937270e+01 +8.672564376669e+01 -2.834236937270e+01 +8.672564376669e+01 -6.973842429828e-03 -3.130111866642e+00
 1.48000000e+01 -7.703733794865e-03 -3.430916389959e+00 -2.828353183142e+01 +8.670262564510e+01 -2.828353183142e+01 +8.670262564510e+01 -7.066192686467e-03 -3.151384831672e+00
 1.49000000e+01 -7.798200676646e-03 -3.454064009047e+00 -2.822509203926e+01 +8.667961089988e+01 -2.822509203926e+01 +8.667961089988e+01 -7.159161196262e-03 -3.172657527077e+00
 1.50000000e+01 -7.893279827716e-03 -3.477211421737e+00 -2.816704467767e+01 +8.665659949670e+01 -2.816704467767e+01 +8.665659949670e+01 -7.252748055583e-03 -3.193929950560e+00
 1.51000000e+01 -7.988971602931e-03 -3.500358625130e+00 -2.810938453423e+01 +8.663359140150e+01 -2.810938453423e+01 +8.663359140150e+01 -7.346953357524e-03 -3.215202099828e+00
 1.52000000e+01 -8.085276347036e-03 -3.523505616332e+00 -2.805210649982e+01 +8.661058658048e+01 -2.805210649982e+01 +8.661058658048e+01 -7.441777191743e-03 -3.236473972583e+00
 1.53000000e+01 -8.182194394868e-03 -3.546652392450e+00 -2.799520556590e+01 +8.658758500011e+01 -2.799520556590e+01 +8.658758500011e+01 -7.537219644809e-03 -3.257745566529e+00
 1.54000000e+01 -8.279726071661e-03 -3.569798950593e+00 -2.793867682194e+01 +8.656458662716e+01 -2.793867682194e+01 +8.656458662716e+01 -7.633280800137e-03 -3.279016879370e+00
 1.55000000e+01 -8.377871693385e-03 -3.592945287873e+00 -2.788251545282e+01 +8.654159142872e+01 -2.788251545282e+01 +8.654159142872e+01 -7.729960738101e-03 -3.300287908806e+00
 1.56000000e+01 -8.476631566860e-03 -3.616091401407e+00 -2.782671673640e+01 +8.651859937216e+01 -2.782671673640e+01 +8.651859937216e+01 -7.827259536132e-03 -3.321558652541e+00
 1.57000000e+01 -8.576005990208e-03 -3.639237288315e+00 -2.777127604116e+01 +8.649561042518e+01 -2.777127604116e+01 +8.649561042518e+01 -7.925177268761e-03 -3.342829108278e+00
 1.58000000e+01 -8.675995252946e-03 -3.662382945721e+00 -2.771618882385e+01 +8.647262455582e+01 -2.771618882385e+01 +8.647262455581e+01 -8.023714007698e-03 -3.364099273719e+00
 1.59000000e+01 -8.776599636276e-03 -3.685528370755e+00 -2.766145062732e+01 +8.644964173242e+01 -2.766145062732e+01 +8.644964173242e+01 -8.122869821914e-03 -3.385369146568e+00
 1.60000000e+01 -8.877819413355e-03 -3.708673560550e+00 -2.760705707831e+01 +8.642666192368e+01 -2.760705707831e+01 +8.642666192367e+01 -8.222644777735e-03 -3.406638724528e+00
 1.61000000e+01 -8.979654849445e-03 -3.731818512247e+00 -2.755300388539e+01 +8.640368509863e+01 -2.755300388539e+01 +8.640368509863e+01 -8.323038938832e-03 -3.427908005304e+00
 1.62000000e+01 -9.082106202197e-03 -3.754963222990e+00 -2.749928683690e+01 +8.638071122665e+01 -2.749928683690e+01 +8.638071122665e+01 -8.424052366341e-03 -3.449176986602e+00
 1.63000000e+01 -9.185173721839e-03 -3.778107689931e+00 -2.744590179902e+01 +8.635774027746e+01 -2.744590179902e+01 +8.635774027746e+01 -8.525685118937e-03 -3.470445666127e+00
 1.64000000e+01 -9.288857651372e-03 -3.801251910226e+00 -2.739284471385e+01 +8.633477222115e+01 -2.739284471385e+01 +8.633477222115e+01 -8.627937252871e-03 -3.491714041587e+00
 1.65000000e+01 -9.393158226745e-03 -3.824395881038e+00 -2.734011159755e+01 +8.631180702813e+01 -2.734011159755e+01 +8.631180702813e+01 -8.730808821971e-03 -3.512982110690e+00
 1.66000000e+01 -9.498075677140e-03 -3.847539599537e+00 -2.728769853858e+01 +8.628884466920e+01 -2.728769853858e+01 +8.628884466920e+01 -8.834299877872e-03 -3.534249871145e+00
 1.67000000e+01 -9.603610225021e-03 -3.870683062900e+00 -2.723560169591e+01 +8.626588511549e+01 -2.723560169591e+01 +8.626588511549e+01 -8.938410469842e-03 -3.555517320665e+00
 1.68000000e+01 -9.709762086435e-03 -3.893826268308e+00 -2.718381729738e+01 +8.624292833851e+01 -2.718381729738e+01 +8.624292833850e+01 -9.043140645002e-03 -3.576784456960e+00
 1.69000000e+01 -9.816531471128e-03 -3.916969212953e+00 -2.713234163808e+01 +8.621997431009e+01 -2.713234163808e+01 +8.621997431009e+01 -9.148490448322e-03 -3.598051277745e+00
 1.70000000e+01 -9.923918582693e-03 -3.940111894030e+00 -2.708117107869e+01 +8.619702300247e+01 -2.708117107869e+01 +8.619702300247e+01 -9.254459922691e-03 -3.619317780734e+00
 1.71000000e+01 -1.003192361877e-02 -3.963254308744e+00 -2.703030204401e+01 +8.617407438820e+01 -2.703030204401e+01 +8.617407438820e+01 -9.361049108890e-03 -3.640583963645e+00
 1.72000000e+01 -1.014054677123e-02 -3.986396454306e+00 -2.697973102142e+01 +8.615112844022e+01 -2.697973102142e+01 +8.615112844022e+01 -9.468258045756e-03 -3.661849824196e+00
 1.73000000e+01 -1.024978822630e-02 -4.009538327934e+00 -2.692945455945e+01 +8.612818513181e+01 -2.692945455945e+01 +8.612818513181e+01 -9.576086770159e-03 -3.683115360107e+00
 1.74000000e+01 -1.035964816465e-02 -4.032679926853e+00 -2.687946926636e+01 +8.610524443660e+01 -2.687946926636e+01 +8.610524443660e+01 -9.684535317051e-03 -3.704380569100e+00
 1.75000000e+01 -1.047012676162e-02 -4.055821248298e+00 -2.682977180880e+01 +8.608230632859e+01 -2.682977180880e+01 +8.608230632859e+01 -9.793603719475e-03 -3.725645448899e+00
 1.76000000e+01 -1.058122418735e-02 -4.078962289508e+00 -2.678035891040e+01 +8.605937078212e+01 -2.678035891040e+01 +8.605937078212e+01 -9.903292008748e-03 -3.746909997229e+00
 1.77000000e+01 -1.069294060688e-02 -4.102103047731e+00 -2.673122735057e+01 +8.603643777189e+01 -2.673122735057e+01 +8.603643777189e+01 -1.001360021431e-02 -3.768174211817e+00
 1.78000000e+01 -1.080527618029e-02 -4.125243520224e+00 -2.668237396319e+01 +8.601350727294e+01 -2.668237396319e+01 +8.601350727294e+01 -1.012452836389e-02 -3.789438090393e+00
 1.79000000e+01 -1.091823106289e-02 -4.148383704249e+00 -2.663379563539e+01 +8.599057926067e+01 -2.663379563539e+01 +8.599057926067e+01 -1.023607648349e-02 -3.810701630689e+00
 1.80000000e+01 -1.103180540525e-02 -4.171523597077e+00 -2.658548930638e+01 +8.596765371080e+01 -2.658548930638e+01 +8.596765371080e+01 -1.034824459749e-02 -3.831964830436e+00
 1.81000000e+01 -1.114599935335e-02 -4.194663195986e+00 -2.653745196628e+01 +8.594473059941e+01 -2.653745196628e+01 +8.594473059941e+01 -1.046103272859e-02 -3.853227687371e+00
 1.82000000e+01 -1.126081304870e-02 -4.217802498262e+00 -2.648968065502e+01 +8.592180990292e+01 -2.648968065502e+01 +8.592180990292e+01 -1.057444089789e-02 -3.874490199231e+00
 1.83000000e+01 -1.137624662851e-02 -4.240941501199e+00 -2.644217246121e+01 +8.589889159808e+01 -2.644217246121e+01 +8.589889159808e+01 -1.068846912497e-02 -3.895752363756e+00
 1.84000000e+01 -1.149230022571e-02 -4.264080202098e+00 -2.639492452112e+01 +8.587597566197e+01 -2.639492452112e+01 +8.587597566197e+01 -1.080311742783e-02 -3.917014178686e+00
 1.85000000e+01 -1.160897396910e-02 -4.287218598266e+00 -2.634793401760e+01 +8.585306207201e+01 -2.634793401760e+01 +8.585306207201e+01 -1.091838582302e-02 -3.938275641765e+00
 1.86000000e+01 -1.172626798345e-02 -4.310356687022e+00 -2.630119817913e+01 +8.583015080595e+01 -2.630119817913e+01 +8.583015080595e+01 -1.103427432557e-02 -3.959536750739e+00
 1.87000000e+01 -1.184418238956e-02 -4.333494465687e+00 -2.625471427878e+01 +8.580724184185e+01 -2.625471427878e+01 +8.580724184185e+01 -1.115078294911e-02 -3.980797503356e+00
 1.88000000e+01 -1.196271730446e-02 -4.356631931594e+00 -2.620847963331e+01 +8.578433515810e+01 -2.620847963331e+01 +8.578433515810e+01 -1.126791170581e-02 -4.002057897366e+00
 1.89000000e+01 -1.208187284140e-02 -4.379769082082e+00 -2.616249160221e+01 +8.576143073341e+01 -2.616249160221e+01 +8.576143073341e+01 -1.138566060658e-02 -4.023317930521e+00
 1.90000000e+01 -1.220164910994e-02 -4.402905914495e+00 -2.611674758682e+01 +8.573852854680e+01 -2.611674758682e+01 +8.573852854680e+01 -1.150402966084e-02 -4.044577600576e+00
 1.91000000e+01 -1.232204621612e-02 -4.426042426189e+00 -2.607124502942e+01 +8.571562857761e+01 -2.607124502942e+01 +8.571562857761e+01 -1.162301887676e-02 -4.065836905286e+00
 1.92000000e+01 -1.244306426252e-02 -4.449178614523e+00 -2.602598141241e+01 +8.569273080547e+01 -2.602598141241e+01 +8.569273080547e+01 -1.174262826121e-02 -4.087095842411e+00
 1.93000000e+01 -1.256470334825e-02 -4.472314476866e+00 -2.598095425745e+01 +8.566983521034e+01 -2.598095425745e+01 +8.566983521034e+01 -1.186285781980e-02 -4.108354409712e+00
 1.94000000e+01 -1.268696356920e-02 -4.495450010594e+00 -2.593616112465e+01 +8.564694177246e+01 -2.593616112465e+01 +8.564694177246e+01 -1.198370755687e-02 -4.129612604951e+00
 1.95000000e+01 -1.280984501794e-02 -4.518585213090e+00 -2.589159961180e+01 +8.562405047237e+01 -2.589159961180e+01 +8.562405047237e+01 -1.210517747551e-02 -4.150870425895e+00
 1.96000000e+01 -1.293334778390e-02 -4.541720081743e+00 -2.584726735358e+01 +8.560116129093e+01 -2.584726735358e+01 +8.560116129093e+01 -1.222726757770e-02 -4.172127870311e+00
 1.97000000e+01 -1.305747195346e-02 -4.564854613951e+00 -2.580316202079e+01 +8.557827420925e+01 -2.580316202079e+01 +8.557827420925e+01 -1.234997786415e-02 -4.193384935968e+00
 1.98000000e+01 -1.318221760995e-02 -4.587988807118e+00 -2.575928131967e+01 +8.555538920876e+01 -2.575928131967e+01 +8.555538920876e+01 -1.247330833451e-02 -4.214641620639e+00
 1.99000000e+01 -1.330758483375e-02 -4.611122658656e+00 -2.571562299113e+01 +8.553250627116e+01 -2.571562299113e+01 +8.553250627116e+01 -1.259725898724e-02 -4.235897922099e+00
 2.00000000e+01 -1.343357370241e-02 -4.634256165982e+00 -2.567218481010e+01 +8.550962537842e+01 -2.567218481010e+01 +8.550962537842e+01 -1.272182981969e-02 -4.257153838123e+00
