#  GHZ S DB R 50
 1.00000000e-02 -1.454856723857e-07 -8.788206683580e-03 -7.731348404459e+01 +8.999186619179e+01 -7.731348404466e+01 +8.999186619256e+01 -1.847615408649e-07 -8.801959323460e-03
 2.00000000e-02 -4.523297743755e-07 -1.757640829660e-02 -7.129288631277e+01 +8.998379768504e+01 -7.129288631277e+01 +8.998379768524e+01 -4.881056782577e-07 -1.760389530307e-02
 1.00000000e-01 -1.028636161730e-05 -8.788155660935e-02 -5.731345141973e+01 +8.991911558613e+01 -5.731345141973e+01 +8.991911558618e+01 -1.019844499837e-05 -8.801900941340e-02
 2.00000000e-01 -4.099764456282e-05 -1.757601584384e-01 -5.129274076425e+01 +8.983817136061e+01 -5.129274076426e+01 +8.983817136061e+01 -4.052318141168e-05 -1.760352717293e-01
 3.00000000e-01 -9.208198425247e-05 -2.636328555573e-01 -4.777073415094e+01 +8.975707365208e+01 -4.777073415095e+01 +8.975707365206e+01 -9.097595004013e-05 -2.640460412218e-01
 4.00000000e-01 -1.633759480603e-04 -3.514968685128e-01 -4.527171203064e+01 +8.967575611397e+01 -4.527171203064e+01 +8.967575611397e+01 -1.614100005204e-04 -3.520487033047e-01
 5.00000000e-01 -2.546581795846e-04 -4.393497164389e-01 -4.333320509910e+01 +8.959415595184e+01 -4.333320509910e+01 +8.959415595184e+01 -2.516219001390e-04 -4.400409032213e-01
 6.00000000e-01 -3.656666183252e-04 -5.271892871873e-01 -4.174922268624e+01 +8.951222188283e+01 -4.174922268624e+01 +8.951222188281e+01 -3.613676420336e-04 -5.280206284120e-01
 7.00000000e-01 -4.961160165233e-04 -6.150138572920e-01 -4.040988799703e+01 +8.942991750753e+01 -4.040988799703e+01 +8.942991750754e+01 -4.903801131420e-04 -6.159862354334e-01
 8.00000000e-01 -6.457130640808e-04 -7.028220751188e-01 -3.924961832462e+01 +8.934722103633e+01 -3.924961832462e+01 +8.934722103634e+01 -6.383842136057e-04 -7.039364353265e-01
 9.00000000e-01 -8.141680084039e-04 -7.906129216691e-01 -3.822611445873e+01 +8.926412325801e+01 -3.822611445873e+01 +8.926412325801e+01 -8.051082842117e-04 -7.918702552256e-01
 1.00000000e+00 -1.001202696155e-03 -8.783856611210e-01 -3.731049693975e+01 +8.918062494087e+01 -3.731049693975e+01 +8.918062494087e+01 -9.902918578895e-04 -8.797869898799e-01
 1.10000000e+00 -1.206555499404e-03 -9.661397896667e-01 -3.648216870458e+01 +8.909673426794e+01 -3.648216870458e+01 +8.909673426794e+01 -1.193690303809e-03 -9.676861519600e-01
 1.20000000e+00 -1.429983802377e-03 -1.053874987996e+00 -3.572592262534e+01 +8.901246458314e+01 -3.572592262534e+01 +8.901246458314e+01 -1.415077092168e-03 -1.055567426325e+00
 1.30000000e+00 -1.671264749060e-03 -1.141591080190e+00 -3.503021086606e+01 +8.892783255292e+01 -3.503021086606e+01 +8.892783255292e+01 -1.654244392268e-03 -1.143430630809e+00
 1.40000000e+00 -1.930194869625e-03 -1.229287999911e+00 -3.438605748977e+01 +8.884285675197e+01 -3.438605748977e+01 +8.884285675196e+01 -1.911002614211e-03 -1.231275684232e+00
 1.50000000e+00 -2.206589070004e-03 -1.316965763571e+00 -3.378634717721e+01 +8.875755663048e+01 -3.378634717721e+01 +8.875755663048e+01 -2.185179365032e-03 -1.319102581257e+00
 1.60000000e+00 -2.500279326949e-03 -1.404624449539e+00 -3.322534400760e+01 +8.867195179739e+01 -3.322534400760e+01 +8.867195179739e+01 -2.476618148487e-03 -1.406911373088e+00
 1.70000000e+00 -2.811113308911e-03 -1.492264182214e+00 -3.269835641005e+01 +8.858606154872e+01 -3.269835641005e+01 +8.858606154872e+01 -2.785177017819e-03 -1.494702152847e+00
 1.80000000e+00 -3.138953045770e-03 -1.579885119832e+00 -3.220149804570e+01 +8.849990457661e+01 -3.220149804570e+01 +8.849990457661e+01 -3.110727296746e-03 -1.582475044510e+00
 1.90000000e+00 -3.483673707337e-03 -1.667487445051e+00 -3.173151343823e+01 +8.841349880460e+01 -3.173151343823e+01 +8.841349880460e+01 -3.453152421408e-03 -1.670230194432e+00
 2.00000000e+00 -3.845162506233e-03 -1.755071357538e+00 -3.128564838983e+01 +8.832686130764e+01 -3.128564838983e+01 +8.832686130764e+01 -3.812346915064e-03 -1.757967764729e+00
 2.10000000e+00 -4.223317721063e-03 -1.842637068008e+00 -3.086155205059e+01 +8.824000828554e+01 -3.086155205059e+01 +8.824000828554e+01 -4.188215486488e-03 -1.845687927961e+00
 2.20000000e+00 -4.618047823013e-03 -1.930184793311e+00 -3.045720179333e+01 +8.815295506883e+01 -3.045720179333e+01 +8.815295506883e+01 -4.580672232933e-03 -1.933390862741e+00
 2.30000000e+00 -5.029270688285e-03 -2.017714752299e+00 -3.007084480332e+01 +8.806571614232e+01 -3.007084480332e+01 +8.806571614232e+01 -4.989639927467e-03 -2.021076750016e+00
 2.40000000e+00 -5.456912878227e-03 -2.105227162314e+00 -2.970095210951e+01 +8.797830517767e+01 -2.970095210951e+01 +8.797830517767e+01 -5.415049370741e-03 -2.108745769866e+00
 2.50000000e+00 -5.900908973769e-03 -2.192722236156e+00 -2.934618200693e+01 +8.789073506935e+01 -2.934618200693e+01 +8.789073506935e+01 -5.856838792903e-03 -2.196398098714e+00
 2.60000000e+00 -6.361200953165e-03 -2.280200179493e+00 -2.900535065803e+01 +8.780301797116e+01 -2.900535065803e+01 +8.780301797116e+01 -6.314953293660e-03 -2.284033906908e+00
 2.70000000e+00 -6.837737605790e-03 -2.367661188639e+00 -2.867740824611e+01 +8.771516533171e+01 -2.867740824611e+01 +8.771516533171e+01 -6.789344313424e-03 -2.371653356616e+00
 2.80000000e+00 -7.330473977279e-03 -2.455105448681e+00 -2.836141946820e+01 +8.762718792846e+01 -2.836141946820e+01 +8.762718792846e+01 -7.279969129850e-03 -2.459256600034e+00
 2.90000000e+00 -7.839370843076e-03 -2.542533131920e+00 -2.805654745334e+01 +8.753909590003e+01 -2.805654745334e+01 +8.753909590003e+01 -7.786790378351e-03 -2.546843777868e+00
 3.00000000e+00 -8.364394209284e-03 -2.629944396603e+00 -2.776204040875e+01 +8.745089877707e+01 -2.776204040875e+01 +8.745089877707e+01 -8.309775594344e-03 -2.634415018092e+00
 3.10000000e+00 -8.905514839607e-03 -2.717339385927e+00 -2.747722045695e+01 +8.736260551180e+01 -2.747722045695e+01 +8.736260551180e+01 -8.848896777646e-03 -2.721970434947e+00
 3.20000000e+00 -9.462707808986e-03 -2.804718227280e+00 -2.720147424624e+01 +8.727422450653e+01 -2.720147424624e+01 +8.727422450653e+01 -9.404129979009e-03 -2.809510128174e+00
 3.30000000e+00 -1.003595208276e-02 -2.892081031705e+00 -2.693424500679e+01 +8.718576364116e+01 -2.693424500679e+01 +8.718576364116e+01 -9.975454909025e-03 -2.897034182456e+00
 3.40000000e+00 -1.062523012256e-02 -2.979427893564e+00 -2.667502579326e+01 +8.709723029995e+01 -2.667502579326e+01 +8.709723029995e+01 -1.056285457004e-02 -2.984542667042e+00
 3.50000000e+00 -1.123052751778e-02 -3.066758890361e+00 -2.642335370748e+01 +8.700863139755e+01 -2.642335370748e+01 +8.700863139755e+01 -1.116631491102e-02 -3.072035635551e+00
 3.60000000e+00 -1.185183264262e-02 -3.154074082731e+00 -2.617880493533e+01 +8.691997340427e+01 -2.617880493533e+01 +8.691997340427e+01 -1.178582450544e-02 -3.159513125907e+00
 3.70000000e+00 -1.248913633805e-02 -3.241373514541e+00 -2.594099046399e+01 +8.683126237065e+01 -2.594099046399e+01 +8.683126237065e+01 -1.242137425199e-02 -3.246975160413e+00
 3.80000000e+00 -1.314243161825e-02 -3.328657213114e+00 -2.570955237041e+01 +8.674250395128e+01 -2.570955237041e+01 +8.674250395128e+01 -1.307295709740e-02 -3.334421745923e+00
 3.90000000e+00 -1.381171340011e-02 -3.415925189531e+00 -2.548416059215e+01 +8.665370342785e+01 -2.548416059215e+01 +8.665370342785e+01 -1.374056778088e-02 -3.421852874109e+00
 4.00000000e+00 -1.449697825498e-02 -3.503177439017e+00 -2.526451010710e+01 +8.656486573136e+01 -2.526451010710e+01 +8.656486573136e+01 -1.442420259957e-02 -3.509268521801e+00
 4.10000000e+00 -1.519822418204e-02 -3.590413941377e+00 -2.505031846145e+01 +8.647599546347e+01 -2.505031846145e+01 +8.647599546347e+01 -1.512385919343e-02 -3.596668651384e+00
 4.20000000e+00 -1.591545040096e-02 -3.677634661481e+00 -2.484132359568e+01 +8.638709691698e+01 -2.484132359568e+01 +8.638709691699e+01 -1.583953634922e-02 -3.684053211244e+00
 4.30000000e+00 -1.664865716398e-02 -3.764839549793e+00 -2.463728192621e+01 +8.629817409542e+01 -2.463728192621e+01 +8.629817409542e+01 -1.657123382189e-02 -3.771422136249e+00
 4.40000000e+00 -1.739784558499e-02 -3.852028542906e+00 -2.443796664775e+01 +8.620923073161e+01 -2.443796664775e+01 +8.620923073161e+01 -1.731895217294e-02 -3.858775348256e+00
 4.50000000e+00 -1.816301748522e-02 -3.939201564112e+00 -2.424316622621e+01 +8.612027030548e+01 -2.424316622621e+01 +8.612027030548e+01 -1.808269262374e-02 -3.946112756633e+00
 4.60000000e+00 -1.894417525399e-02 -4.026358523970e+00 -2.405268305734e+01 +8.603129606075e+01 -2.405268305734e+01 +8.603129606075e+01 -1.886245692340e-02 -4.033434258795e+00
 4.70000000e+00 -1.974132172324e-02 -4.113499320881e+00 -2.386633226956e+01 +8.594231102087e+01 -2.386633226956e+01 +8.594231102087e+01 -1.965824723005e-02 -4.120739740741e+00
 4.80000000e+00 -2.055446005511e-02 -4.200623841660e+00 -2.368394065270e+01 +8.585331800394e+01 -2.368394065270e+01 +8.585331800394e+01 -2.047006600400e-02 -4.208029077592e+00
 4.90000000e+00 -2.138359364122e-02 -4.287731962102e+00 -2.350534569722e+01 +8.576431963686e+01 -2.350534569722e+01 +8.576431963686e+01 -2.129791591230e-02 -4.295302134123e+00
 5.00000000e+00 -2.222872601259e-02 -4.374823547540e+00 -2.333039473043e+01 +8.567531836850e+01 -2.333039473043e+01 +8.567531836850e+01 -2.214179974367e-02 -4.382558765290e+00
 5.10000000e+00 -2.308986075970e-02 -4.461898453389e+00 -2.315894413815e+01 +8.558631648221e+01 -2.315894413815e+01 +8.558631648221e+01 -2.300172033233e-02 -4.469798816735e+00
 5.20000000e+00 -2.396700146130e-02 -4.548956525676e+00 -2.299085866191e+01 +8.549731610741e+01 -2.299085866191e+01 +8.549731610741e+01 -2.387768049107e-02 -4.557022125295e+00
 5.30000000e+00 -2.486015162141e-02 -4.635997601552e+00 -2.282601076308e+01 +8.540831923051e+01 -2.282601076308e+01 +8.540831923051e+01 -2.476968295148e-02 -4.644228519482e+00
 5.40000000e+00 -2.576931461400e-02 -4.723021509794e+00 -2.266428004633e+01 +8.531932770507e+01 -2.266428004633e+01 +8.531932770507e+01 -2.567773031162e-02 -4.731417819950e+00
 5.50000000e+00 -2.669449363395e-02 -4.810028071277e+00 -2.250555273598e+01 +8.523034326136e+01 -2.250555273598e+01 +8.523034326136e+01 -2.660182498977e-02 -4.818589839952e+00
 5.60000000e+00 -2.763569165447e-02 -4.897017099441e+00 -2.234972119947e+01 +8.514136751517e+01 -2.234972119947e+01 +8.514136751517e+01 -2.754196918429e-02 -4.905744385769e+00
 5.70000000e+00 -2.859291138980e-02 -4.983988400727e+00 -2.219668351298e+01 +8.505240197610e+01 -2.219668351298e+01 +8.505240197610e+01 -2.849816483844e-02 -4.992881257127e+00
 5.80000000e+00 -2.956615526298e-02 -5.070941775000e+00 -2.204634306477e+01 +8.496344805527e+01 -2.204634306477e+01 +8.496344805527e+01 -2.947041360997e-02 -5.080000247599e+00
 5.90000000e+00 -3.055542537803e-02 -5.157877015955e+00 -2.189860819238e+01 +8.487450707247e+01 -2.189860819238e+01 +8.487450707247e+01 -3.045871684504e-02 -5.167101144980e+00
 6.00000000e+00 -3.156072349603e-02 -5.244793911497e+00 -2.175339185037e+01 +8.478558026281e+01 -2.175339185037e+01 +8.478558026281e+01 -3.146307555576e-02 -5.254183731654e+00
 6.10000000e+00 -3.258205101509e-02 -5.331692244109e+00 -2.161061130533e+01 +8.469666878297e+01 -2.161061130533e+01 +8.469666878297e+01 -3.248349040125e-02 -5.341247784934e+00
 6.20000000e+00 -3.361940895319e-02 -5.418571791201e+00 -2.147018785584e+01 +8.460777371690e+01 -2.147018785584e+01 +8.460777371690e+01 -3.351996167181e-02 -5.428293077397e+00
 6.30000000e+00 -3.467279793413e-02 -5.505432325438e+00 -2.133204657469e+01 +8.451889608119e+01 -2.133204657469e+01 +8.451889608119e+01 -3.457248927556e-02 -5.515319377187e+00
 6.40000000e+00 -3.574221817603e-02 -5.592273615055e+00 -2.119611607138e+01 +8.443003683004e+01 -2.119611607138e+01 +8.443003683004e+01 -3.564107272774e-02 -5.602326448318e+00
 6.50000000e+00 -3.682766948194e-02 -5.679095424153e+00 -2.106232827311e+01 +8.434119685990e+01 -2.106232827311e+01 +8.434119685990e+01 -3.672571114222e-02 -5.689314050948e+00
 6.60000000e+00 -3.792915123281e-02 -5.765897512980e+00 -2.093061822234e+01 +8.425237701368e+01 -2.093061822234e+01 +8.425237701368e+01 -3.782640322468e-02 -5.776281941649e+00
 6.70000000e+00 -3.904666238194e-02 -5.852679638199e+00 -2.080092388961e+01 +8.416357808481e+01 -2.080092388961e+01 +8.416357808481e+01 -3.894314726766e-02 -5.863229873653e+00
 6.80000000e+00 -4.018020145128e-02 -5.939441553138e+00 -2.067318600026e+01 +8.407480082084e+01 -2.067318600026e+01 +8.407480082084e+01 -4.007594114711e-02 -5.950157597093e+00
 6.90000000e+00 -4.132976652885e-02 -6.026183008027e+00 -2.054734787367e+01 +8.398604592692e+01 -2.054734787367e+01 +8.398604592692e+01 -4.122478232020e-02 -6.037064859221e+00
 7.00000000e+00 -4.249535526785e-02 -6.112903750225e+00 -2.042335527416e+01 +8.389731406895e+01 -2.042335527416e+01 +8.389731406895e+01 -4.238966782445e-02 -6.123951404629e+00
 7.10000000e+00 -4.367696488628e-02 -6.199603524429e+00 -2.030115627239e+01 +8.380860587651e+01 -2.030115627239e+01 +8.380860587651e+01 -4.357059427747e-02 -6.210816975437e+00
 7.20000000e+00 -4.487459216816e-02 -6.286282072877e+00 -2.018070111645e+01 +8.371992194561e+01 -2.018070111645e+01 +8.371992194561e+01 -4.476755787837e-02 -6.297661311491e+00
 7.30000000e+00 -4.608823346501e-02 -6.372939135533e+00 -2.006194211183e+01 +8.363126284118e+01 -2.006194211183e+01 +8.363126284118e+01 -4.598055440898e-02 -6.384484150534e+00
 7.40000000e+00 -4.731788469835e-02 -6.459574450270e+00 -1.994483350957e+01 +8.354262909944e+01 -1.994483350957e+01 +8.354262909944e+01 -4.720957923654e-02 -6.471285228376e+00
 7.50000000e+00 -4.856354136277e-02 -6.546187753033e+00 -1.982933140189e+01 +8.345402123008e+01 -1.982933140189e+01 +8.345402123008e+01 -4.845462731648e-02 -6.558064279052e+00
 7.60000000e+00 -4.982519852954e-02 -6.632778777998e+00 -1.971539362469e+01 +8.336543971825e+01 -1.971539362469e+01 +8.336543971825e+01 -4.971569319602e-02 -6.644821034969e+00
 7.70000000e+00 -5.110285085055e-02 -6.719347257723e+00 -1.960297966648e+01 +8.327688502641e+01 -1.960297966648e+01 +8.327688502641e+01 -5.099277101798e-02 -6.731555227047e+00
 7.80000000e+00 -5.239649256291e-02 -6.805892923284e+00 -1.949205058313e+01 +8.318835759612e+01 -1.949205058313e+01 +8.318835759612e+01 -5.228585452495e-02 -6.818266584851e+00
 7.90000000e+00 -5.370611749352e-02 -6.892415504415e+00 -1.938256891806e+01 +8.309985784957e+01 -1.938256891806e+01 +8.309985784956e+01 -5.359493706389e-02 -6.904954836713e+00
 8.00000000e+00 -5.503171906414e-02 -6.978914729621e+00 -1.927449862746e+01 +8.301138619110e+01 -1.927449862746e+01 +8.301138619110e+01 -5.492001159083e-02 -6.991619709852e+00
 8.10000000e+00 -5.637329029664e-02 -7.065390326305e+00 -1.916780501009e+01 +8.292294300858e+01 -1.916780501009e+01 +8.292294300858e+01 -5.626107067597e-02 -7.078260930483e+00
 8.20000000e+00 -5.773082381828e-02 -7.151842020874e+00 -1.906245464148e+01 +8.283452867468e+01 -1.906245464148e+01 +8.283452867468e+01 -5.761810650859e-02 -7.164878223920e+00
 8.30000000e+00 -5.910431186739e-02 -7.238269538843e+00 -1.895841531201e+01 +8.274614354801e+01 -1.895841531201e+01 +8.274614354801e+01 -5.899111090236e-02 -7.251471314672e+00
 8.40000000e+00 -6.049374629879e-02 -7.324672604935e+00 -1.885565596877e+01 +8.265778797427e+01 -1.885565596877e+01 +8.265778797427e+01 -6.038007530077e-02 -7.338039926539e+00
 8.50000000e+00 -6.189911858964e-02 -7.411050943167e+00 -1.875414666081e+01 +8.256946228724e+01 -1.875414666081e+01 +8.256946228724e+01 -6.178499078244e-02 -7.424583782697e+00
 8.60000000e+00 -6.332041984499e-02 -7.497404276947e+00 -1.865385848763e+01 +8.248116680968e+01 -1.865385848763e+01 +8.248116680968e+01 -6.320584806638e-02 -7.511102605776e+00
 8.70000000e+00 -6.475764080371e-02 -7.583732329146e+00 -1.855476355060e+01 +8.239290185425e+01 -1.855476355060e+01 +8.239290185425e+01 -6.464263751768e-02 -7.597596117943e+00
 8.80000000e+00 -6.621077184398e-02 -7.670034822180e+00 -1.845683490716e+01 +8.230466772430e+01 -1.845683490716e+01 +8.230466772430e+01 -6.609534915271e-02 -7.684064040969e+00
 8.90000000e+00 -6.767980298913e-02 -7.756311478081e+00 -1.836004652767e+01 +8.221646471458e+01 -1.836004652767e+01 +8.221646471458e+01 -6.756397264453e-02 -7.770506096300e+00
 9.00000000e+00 -6.916472391338e-02 -7.842562018566e+00 -1.826437325456e+01 +8.212829311196e+01 -1.826437325456e+01 +8.212829311196e+01 -6.904849732848e-02 -7.856922005120e+00
 9.10000000e+00 -7.066552394725e-02 -7.928786165101e+00 -1.816979076385e+01 +8.204015319606e+01 -1.816979076385e+01 +8.204015319606e+01 -7.054891220709e-02 -7.943311488413e+00
 9.20000000e+00 -7.218219208324e-02 -8.014983638963e+00 -1.807627552866e+01 +8.195204523983e+01 -1.807627552866e+01 +8.195204523983e+01 -7.206520595562e-02 -8.029674267019e+00
 9.30000000e+00 -7.371471698134e-02 -8.101154161294e+00 -1.798380478476e+01 +8.186396951010e+01 -1.798380478476e+01 +8.186396951010e+01 -7.359736692721e-02 -8.116010061688e+00
 9.40000000e+00 -7.526308697435e-02 -8.187297453158e+00 -1.789235649798e+01 +8.177592626808e+01 -1.789235649798e+01 +8.177592626808e+01 -7.514538315779e-02 -8.202318593130e+00
 9.50000000e+00 -7.682729007325e-02 -8.273413235592e+00 -1.780190933327e+01 +8.168791576982e+01 -1.780190933327e+01 +8.168791576982e+01 -7.670924237130e-02 -8.288599582064e+00
 9.60000000e+00 -7.840731397236e-02 -8.359501229651e+00 -1.771244262540e+01 +8.159993826666e+01 -1.771244262540e+01 +8.159993826665e+01 -7.828893198455e-02 -8.374852749265e+00
 9.70000000e+00 -8.000314605455e-02 -8.445561156457e+00 -1.762393635126e+01 +8.151199400559e+01 -1.762393635126e+01 +8.151199400559e+01 -7.988443911202e-02 -8.461077815604e+00
 9.80000000e+00 -8.161477339634e-02 -8.531592737241e+00 -1.753637110345e+01 +8.142408322965e+01 -1.753637110345e+01 +8.142408322965e+01 -8.149575057066e-02 -8.547274502087e+00
 9.90000000e+00 -8.324218277258e-02 -8.617595693380e+00 -1.744972806529e+01 +8.133620617826e+01 -1.744972806529e+01 +8.133620617826e+01 -8.312285288452e-02 -8.633442529897e+00
 1.00000000e+01 -8.488536066154e-02 -8.703569746439e+00 -1.736398898711e+01 +8.124836308753e+01 -1.736398898711e+01 +8.124836308753e+01 -8.476573228923e-02 -8.719581620430e+00
 1.01000000e+01 -8.654429324951e-02 -8.789514618207e+00 -1.727913616359e+01 +8.116055419053e+01 -1.727913616359e+01 +8.116055419053e+01 -8.642437473669e-02 -8.805691495325e+00
 1.02000000e+01 -8.821896643547e-02 -8.875430030731e+00 -1.719515241239e+01 +8.107277971758e+01 -1.719515241239e+01 +8.107277971758e+01 -8.809876589916e-02 -8.891771876500e+00
 1.03000000e+01 -8.990936583552e-02 -8.961315706344e+00 -1.711202105368e+01 +8.098503989649e+01 -1.711202105368e+01 +8.098503989648e+01 -8.978889117363e-02 -8.977822486181e+00
 1.04000000e+01 -9.161547678746e-02 -9.047171367702e+00 -1.702972589075e+01 +8.089733495277e+01 -1.702972589075e+01 +8.089733495276e+01 -9.149473568608e-02 -9.063843046932e+00
 1.05000000e+01 -9.333728435497e-02 -9.132996737810e+00 -1.694825119147e+01 +8.080966510985e+01 -1.694825119147e+01 +8.080966510985e+01 -9.321628429539e-02 -9.149833281681e+00
 1.06000000e+01 -9.507477333183e-02 -9.218791540049e+00 -1.686758167068e+01 +8.072203058928e+01 -1.686758167068e+01 +8.072203058928e+01 -9.495352159737e-02 -9.235792913747e+00
 1.07000000e+01 -9.682792824610e-02 -9.304555498203e+00 -1.678770247344e+01 +8.063443161089e+01 -1.678770247344e+01 +8.063443161089e+01 -9.670643192862e-02 -9.321721666864e+00
 1.08000000e+01 -9.859673336400e-02 -9.390288336481e+00 -1.670859915894e+01 +8.054686839293e+01 -1.670859915894e+01 +8.054686839293e+01 -9.847499937039e-02 -9.407619265205e+00
 1.09000000e+01 -1.003811726940e-01 -9.475989779547e+00 -1.663025768527e+01 +8.045934115227e+01 -1.663025768527e+01 +8.045934115227e+01 -1.002592077522e-01 -9.493485433405e+00
 1.10000000e+01 -1.021812299906e-01 -9.561659552534e+00 -1.655266439485e+01 +8.037185010450e+01 -1.655266439485e+01 +8.037185010450e+01 -1.020590406554e-01 -9.579319896580e+00
 1.11000000e+01 -1.039968887577e-01 -9.647297381071e+00 -1.647580600046e+01 +8.028439546404e+01 -1.647580600046e+01 +8.028439546404e+01 -1.038744814167e-01 -9.665122380349e+00
 1.12000000e+01 -1.058281322529e-01 -9.732902991300e+00 -1.639966957200e+01 +8.019697744430e+01 -1.639966957200e+01 +8.019697744430e+01 -1.057055131319e-01 -9.750892610851e+00
 1.13000000e+01 -1.076749434903e-01 -9.818476109897e+00 -1.632424252375e+01 +8.010959625774e+01 -1.632424252375e+01 +8.010959625774e+01 -1.075521186586e-01 -9.836630314767e+00
 1.14000000e+01 -1.095373052447e-01 -9.904016464089e+00 -1.624951260222e+01 +8.002225211599e+01 -1.624951260222e+01 +8.002225211599e+01 -1.094142806200e-01 -9.922335219333e+00
 1.15000000e+01 -1.114152000543e-01 -9.989523781672e+00 -1.617546787458e+01 +7.993494522991e+01 -1.617546787458e+01 +7.993494522991e+01 -1.112919814079e-01 -1.000800705236e+01
 1.16000000e+01 -1.133086102242e-01 -1.007499779102e+01 -1.610209671748e+01 +7.984767580970e+01 -1.610209671748e+01 +7.984767580970e+01 -1.131852031858e-01 -1.009364554224e+01
 1.17000000e+01 -1.152175178301e-01 -1.016043822113e+01 -1.602938780648e+01 +7.976044406496e+01 -1.602938780648e+01 +7.976044406496e+01 -1.150939278920e-01 -1.017925041798e+01
 1.18000000e+01 -1.171419047205e-01 -1.024584480158e+01 -1.595733010581e+01 +7.967325020473e+01 -1.595733010581e+01 +7.967325020473e+01 -1.170181372424e-01 -1.026482140921e+01
 1.19000000e+01 -1.190817525205e-01 -1.033121726261e+01 -1.588591285867e+01 +7.958609443758e+01 -1.588591285867e+01 +7.958609443758e+01 -1.189578127334e-01 -1.035035824618e+01
 1.20000000e+01 -1.210370426346e-01 -1.041655533509e+01 -1.581512557783e+01 +7.949897697165e+01 -1.581512557783e+01 +7.949897697165e+01 -1.209129356452e-01 -1.043586065978e+01
 1.21000000e+01 -1.230077562493e-01 -1.050185875054e+01 -1.574495803672e+01 +7.941189801469e+01 -1.574495803672e+01 +7.941189801469e+01 -1.228834870436e-01 -1.052132838157e+01
 1.22000000e+01 -1.249938743363e-01 -1.058712724116e+01 -1.567540026082e+01 +7.932485777410e+01 -1.567540026082e+01 +7.932485777410e+01 -1.248694477836e-01 -1.060676114378e+01
 1.23000000e+01 -1.269953776551e-01 -1.067236053982e+01 -1.560644251940e+01 +7.923785645700e+01 -1.560644251940e+01 +7.923785645700e+01 -1.268707985116e-01 -1.069215867932e+01
 1.24000000e+01 -1.290122467557e-01 -1.075755838010e+01 -1.553807531768e+01 +7.915089427022e+01 -1.553807531768e+01 +7.915089427022e+01 -1.288875196681e-01 -1.077752072180e+01
 1.25000000e+01 -1.310444619815e-01 -1.084272049628e+01 -1.547028938916e+01 +7.906397142035e+01 -1.547028938916e+01 +7.906397142035e+01 -1.309195914898e-01 -1.086284700551e+01
 1.26000000e+01 -1.330920034714e-01 -1.092784662333e+01 -1.540307568839e+01 +7.897708811376e+01 -1.540307568839e+01 +7.897708811375e+01 -1.329669940129e-01 -1.094813726547e+01
 1.27000000e+01 -1.351548511627e-01 -1.101293649697e+01 -1.533642538397e+01 +7.889024455663e+01 -1.533642538397e+01 +7.889024455663e+01 -1.350297070745e-01 -1.103339123742e+01
 1.28000000e+01 -1.372329847934e-01 -1.109798985364e+01 -1.527032985180e+01 +7.880344095497e+01 -1.527032985180e+01 +7.880344095497e+01 -1.371077103158e-01 -1.111860865785e+01
 1.29000000e+01 -1.393263839046e-01 -1.118300643054e+01 -1.520478066865e+01 +7.871667751463e+01 -1.520478066865e+01 +7.871667751463e+01 -1.392009831837e-01 -1.120378926395e+01
 1.30000000e+01 -1.414350278433e-01 -1.126798596561e+01 -1.513976960591e+01 +7.862995444130e+01 -1.513976960591e+01 +7.862995444130e+01 -1.413095049337e-01 -1.128893279371e+01
 1.31000000e+01 -1.435588957638e-01 -1.135292819754e+01 -1.507528862366e+01 +7.854327194056e+01 -1.507528862366e+01 +7.854327194056e+01 -1.434332546317e-01 -1.137403898585e+01
 1.32000000e+01 -1.456979666309e-01 -1.143783286580e+01 -1.501132986491e+01 +7.845663021785e+01 -1.501132986491e+01 +7.845663021785e+01 -1.455722111560e-01 -1.145910757985e+01
 1.33000000e+01 -1.478522192216e-01 -1.152269971065e+01 -1.494788565005e+01 +7.837002947850e+01 -1.494788565005e+01 +7.837002947850e+01 -1.477263531998e-01 -1.154413831598e+01
 1.34000000e+01 -1.500216321273e-01 -1.160752847312e+01 -1.488494847154e+01 +7.828346992772e+01 -1.488494847154e+01 +7.828346992772e+01 -1.498956592733e-01 -1.162913093531e+01
 1.35000000e+01 -1.522061837560e-01 -1.169231889502e+01 -1.482251098880e+01 +7.819695177062e+01 -1.482251098880e+01 +7.819695177062e+01 -1.520801077052e-01 -1.171408517966e+01
 1.36000000e+01 -1.544058523347e-01 -1.177707071899e+01 -1.476056602327e+01 +7.811047521221e+01 -1.476056602327e+01 +7.811047521221e+01 -1.542796766452e-01 -1.179900079167e+01
 1.37000000e+01 -1.566206159107e-01 -1.186178368846e+01 -1.469910655363e+01 +7.802404045737e+01 -1.469910655363e+01 +7.802404045737e+01 -1.564943440659e-01 -1.188387751478e+01
 1.38000000e+01 -1.588504523543e-01 -1.194645754767e+01 -1.463812571125e+01 +7.793764771091e+01 -1.463812571125e+01 +7.793764771091e+01 -1.587240877645e-01 -1.196871509325e+01
 1.39000000e+01 -1.610953393605e-01 -1.203109204168e+01 -1.457761677576e+01 +7.785129717750e+01 -1.457761677576e+01 +7.785129717750e+01 -1.609688853647e-01 -1.205351327215e+01
 1.40000000e+01 -1.633552544509e-01 -1.211568691639e+01 -1.451757317080e+01 +7.776498906171e+01 -1.451757317080e+01 +7.776498906171e+01 -1.632287143189e-01 -1.213827179736e+01
 1.41000000e+01 -1.656301749757e-01 -1.220024191851e+01 -1.445798845991e+01 +7.767872356801e+01 -1.445798845991e+01 +7.767872356800e+01 -1.655035519096e-01 -1.222299041561e+01
 1.42000000e+01 -1.679200781153e-01 -1.228475679560e+01 -1.439885634257e+01 +7.759250090072e+01 -1.439885634257e+01 +7.759250090072e+01 -1.677933752515e-01 -1.230766887446e+01
 1.43000000e+01 -1.702249408826e-01 -1.236923129608e+01 -1.434017065036e+01 +7.750632126405e+01 -1.434017065036e+01 +7.750632126405e+01 -1.700981612928e-01 -1.239230692230e+01
 1.44000000e+01 -1.725447401244e-01 -1.245366516918e+01 -1.428192534331e+01 +7.742018486209e+01 -1.428192534331e+01 +7.742018486209e+01 -1.724178868177e-01 -1.247690430838e+01
 1.45000000e+01 -1.748794525233e-01 -1.253805816503e+01 -1.422411450631e+01 +7.733409189877e+01 -1.422411450631e+01 +7.733409189877e+01 -1.747525284473e-01 -1.256146078279e+01
 1.46000000e+01 -1.772290545996e-01 -1.262241003459e+01 -1.416673234568e+01 +7.724804257788e+01 -1.416673234568e+01 +7.724804257788e+01 -1.771020626419e-01 -1.264597609650e+01
 1.47000000e+01 -1.795935227125e-01 -1.270672052969e+01 -1.410977318585e+01 +7.716203710306e+01 -1.410977318585e+01 +7.716203710306e+01 -1.794664657023e-01 -1.273045000131e+01
 1.48000000e+01 -1.819728330627e-01 -1.279098940304e+01 -1.405323146617e+01 +7.707607567776e+01 -1.405323146617e+01 +7.707607567776e+01 -1.818457137714e-01 -1.281488224991e+01
 1.49000000e+01 -1.843669616930e-01 -1.287521640822e+01 -1.399710173775e+01 +7.699015850528e+01 -1.399710173775e+01 +7.699015850528e+01 -1.842397828362e-01 -1.289927259587e+01
 1.50000000e+01 -1.867758844908e-01 -1.295940129969e+01 -1.394137866054e+01 +7.690428578873e+01 -1.394137866054e+01 +7.690428578873e+01 -1.866486487289e-01 -1.298362079361e+01
 1.51000000e+01 -1.891995771892e-01 -1.304354383278e+01 -1.388605700039e+01 +7.681845773103e+01 -1.388605700039e+01 +7.681845773103e+01 -1.890722871287e-01 -1.306792659845e+01
 1.52000000e+01 -1.916380153689e-01 -1.312764376374e+01 -1.383113162626e+01 +7.673267453487e+01 -1.383113162626e+01 +7.673267453487e+01 -1.915106735636e-01 -1.315218976659e+01
 1.53000000e+01 -1.940911744594e-01 -1.321170084969e+01 -1.377659750749e+01 +7.664693640276e+01 -1.377659750749e+01 +7.664693640276e+01 -1.939637834113e-01 -1.323641005513e+01
 1.54000000e+01 -1.965590297412e-01 -1.329571484866e+01 -1.372244971123e+01 +7.656124353695e+01 -1.372244971123e+01 +7.656124353695e+01 -1.964315919011e-01 -1.332058722206e+01
 1.55000000e+01 -1.990415563465e-01 -1.337968551956e+01 -1.366868339983e+01 +7.647559613948e+01 -1.366868339983e+01 +7.647559613948e+01 -1.989140741157e-01 -1.340472102626e+01
 1.56000000e+01 -2.015387292613e-01 -1.346361262224e+01 -1.361529382848e+01 +7.638999441211e+01 -1.361529382848e+01 +7.638999441211e+01 -2.014112049919e-01 -1.348881122753e+01
 1.57000000e+01 -2.040505233269e-01 -1.354749591743e+01 -1.356227634274e+01 +7.630443855636e+01 -1.356227634274e+01 +7.630443855636e+01 -2.039229593227e-01 -1.357285758657e+01
 1.58000000e+01 -2.065769132410e-01 -1.363133516679e+01 -1.350962637629e+01 +7.621892877348e+01 -1.350962637629e+01 +7.621892877348e+01 -2.064493117585e-01 -1.365685986499e+01
 1.59000000e+01 -2.091178735594e-01 -1.371513013290e+01 -1.345733944871e+01 +7.613346526442e+01 -1.345733944871e+01 +7.613346526442e+01 -2.089902368084e-01 -1.374081782531e+01
 1.60000000e+01 -2.116733786973e-01 -1.379888057924e+01 -1.340541116328e+01 +7.604804822984e+01 -1.340541116328e+01 +7.604804822984e+01 -2.115457088417e-01 -1.382473123098e+01
 1.61000000e+01 -2.142434029311e-01 -1.388258627024e+01 -1.335383720495e+01 +7.596267787009e+01 -1.335383720495e+01 +7.596267787009e+01 -2.141157020896e-01 -1.390859984638e+01
 1.62000000e+01 -2.168279203993e-01 -1.396624697125e+01 -1.330261333826e+01 +7.587735438521e+01 -1.330261333826e+01 +7.587735438521e+01 -2.167001906460e-01 -1.399242343679e+01
 1.63000000e+01 -2.194269051042e-01 -1.404986244855e+01 -1.325173540538e+01 +7.579207797490e+01 -1.325173540538e+01 +7.579207797490e+01 -2.192991484694e-01 -1.407620176844e+01
 1.64000000e+01 -2.220403309134e-01 -1.413343246935e+01 -1.320119932426e+01 +7.570684883851e+01 -1.320119932426e+01 +7.570684883851e+01 -2.219125493839e-01 -1.415993460848e+01
 1.65000000e+01 -2.246681715607e-01 -1.421695680180e+01 -1.315100108672e+01 +7.562166717504e+01 -1.315100108672e+01 +7.562166717504e+01 -2.245403670807e-01 -1.424362172503e+01
 1.66000000e+01 -2.273104006479e-01 -1.430043521501e+01 -1.310113675670e+01 +7.553653318312e+01 -1.310113675670e+01 +7.553653318312e+01 -2.271825751193e-01 -1.432726288710e+01
 1.67000000e+01 -2.299669916460e-01 -1.438386747901e+01 -1.305160246852e+01 +7.545144706100e+01 -1.305160246852e+01 +7.545144706100e+01 -2.298391469290e-01 -1.441085786469e+01
 1.68000000e+01 -2.326379178965e-01 -1.446725336479e+01 -1.300239442518e+01 +7.536640900655e+01 -1.300239442518e+01 +7.536640900655e+01 -2.325100558100e-01 -1.449440642871e+01
 1.69000000e+01 -2.353231526127e-01 -1.455059264429e+01 -1.295350889673e+01 +7.528141921723e+01 -1.295350889673e+01 +7.528141921723e+01 -2.351952749350e-01 -1.457790835105e+01
 1.70000000e+01 -2.380226688810e-01 -1.463388509041e+01 -1.290494221870e+01 +7.519647789006e+01 -1.290494221870e+01 +7.519647789006e+01 -2.378947773502e-01 -1.466136340452e+01
 1.71000000e+01 -2.407364396625e-01 -1.471713047700e+01 -1.285669079056e+01 +7.511158522168e+01 -1.285669079056e+01 +7.511158522168e+01 -2.406085359766e-01 -1.474477136292e+01
 1.72000000e+01 -2.434644377937e-01 -1.480032857887e+01 -1.280875107419e+01 +7.502674140826e+01 -1.280875107419e+01 +7.502674140826e+01 -2.433365236113e-01 -1.482813200099e+01
 1.73000000e+01 -2.462066359883e-01 -1.488347917180e+01 -1.276111959248e+01 +7.494194664552e+01 -1.276111959248e+01 +7.494194664552e+01 -2.460787129290e-01 -1.491144509443e+01
 1.74000000e+01 -2.489630068381e-01 -1.496658203252e+01 -1.271379292789e+01 +7.485720112875e+01 -1.271379292789e+01 +7.485720112875e+01 -2.488350764829e-01 -1.499471041990e+01
 1.75000000e+01 -2.517335228148e-01 -1.504963693874e+01 -1.266676772109e+01 +7.477250505272e+01 -1.266676772109e+01 +7.477250505272e+01 -2.516055867061e-01 -1.507792775506e+01
 1.76000000e+01 -2.545181562705e-01 -1.513264366914e+01 -1.262004066962e+01 +7.468785861177e+01 -1.262004066962e+01 +7.468785861177e+01 -2.543902159126e-01 -1.516109687849e+01
 1.77000000e+01 -2.573168794394e-01 -1.521560200337e+01 -1.257360852663e+01 +7.460326199971e+01 -1.257360852663e+01 +7.460326199971e+01 -2.571889362993e-01 -1.524421756978e+01
 1.78000000e+01 -2.601296644392e-01 -1.529851172206e+01 -1.252746809959e+01 +7.451871540986e+01 -1.252746809959e+01 +7.451871540986e+01 -2.600017199459e-01 -1.532728960948e+01
 1.79000000e+01 -2.629564832717e-01 -1.538137260682e+01 -1.248161624908e+01 +7.443421903502e+01 -1.248161624908e+01 +7.443421903502e+01 -2.628285388175e-01 -1.541031277912e+01
 1.80000000e+01 -2.657973078246e-01 -1.546418444022e+01 -1.243604988761e+01 +7.434977306747e+01 -1.243604988761e+01 +7.434977306746e+01 -2.656693647648e-01 -1.549328686121e+01
 1.81000000e+01 -2.686521098726e-01 -1.554694700584e+01 -1.239076597846e+01 +7.426537769894e+01 -1.239076597846e+01 +7.426537769894e+01 -2.685241695257e-01 -1.557621163923e+01
 1.82000000e+01 -2.715208610782e-01 -1.562966008823e+01 -1.234576153458e+01 +7.418103312064e+01 -1.234576153458e+01 +7.418103312064e+01 -2.713929247266e-01 -1.565908689768e+01
 1.83000000e+01 -2.744035329935e-01 -1.571232347294e+01 -1.230103361746e+01 +7.409673952321e+01 -1.230103361746e+01 +7.409673952321e+01 -2.742756018833e-01 -1.574191242200e+01
 1.84000000e+01 -2.773000970609e-01 -1.579493694648e+01 -1.225657933610e+01 +7.401249709671e+01 -1.225657933610e+01 +7.401249709671e+01 -2.771721724022e-01 -1.582468799865e+01
 1.85000000e+01 -2.802105246145e-01 -1.587750029639e+01 -1.221239584598e+01 +7.392830603065e+01 -1.221239584598e+01 +7.392830603065e+01 -2.800826075818e-01 -1.590741341507e+01
 1.86000000e+01 -2.831347868812e-01 -1.596001331117e+01 -1.216848034803e+01 +7.384416651394e+01 -1.216848034803e+01 +7.384416651394e+01 -2.830068786136e-01 -1.599008845971e+01
 1.87000000e+01 -2.860728549819e-01 -1.604247578035e+01 -1.212483008767e+01 +7.376007873490e+01 -1.212483008767e+01 +7.376007873490e+01 -2.859449565830e-01 -1.607271292198e+01
 1.88000000e+01 -2.890246999327e-01 -1.612488749442e+01 -1.208144235387e+01 +7.367604288123e+01 -1.208144235387e+01 +7.367604288123e+01 -2.888968124710e-01 -1.615528659232e+01
 1.89000000e+01 -2.919902926460e-01 -1.620724824490e+01 -1.203831447821e+01 +7.359205914004e+01 -1.203831447821e+01 +7.359205914004e+01 -2.918624171550e-01 -1.623780926216e+01
 1.90000000e+01 -2.949696039316e-01 -1.628955782429e+01 -1.199544383396e+01 +7.350812769781e+01 -1.199544383396e+01 +7.350812769781e+01 -2.948417414101e-01 -1.632028072393e+01
 1.91000000e+01 -2.979626044980e-01 -1.637181602611e+01 -1.195282783524e+01 +7.342424874038e+01 -1.195282783524e+01 +7.342424874038e+01 -2.978347559101e-01 -1.640270077105e+01
 1.92000000e+01 -3.009692649533e-01 -1.645402264487e+01 -1.191046393615e+01 +7.334042245296e+01 -1.191046393615e+01 +7.334042245296e+01 -3.008414312287e-01 -1.648506919797e+01
 1.93000000e+01 -3.039895558067e-01 -1.653617747610e+01 -1.186834962993e+01 +7.325664902010e+01 -1.186834962993e+01 +7.325664902010e+01 -3.038617378406e-01 -1.656738580013e+01
 1.94000000e+01 -3.070234474691e-01 -1.661828031632e+01 -1.182648244816e+01 +7.317292862571e+01 -1.182648244816e+01 +7.317292862571e+01 -3.068956461227e-01 -1.664965037399e+01
 1.95000000e+01 -3.100709102547e-01 -1.670033096309e+01 -1.178485995995e+01 +7.308926145301e+01 -1.178485995995e+01 +7.308926145301e+01 -3.099431263550e-01 -1.673186271700e+01
 1.96000000e+01 -3.131319143820e-01 -1.678232921495e+01 -1.174347977120e+01 +7.300564768457e+01 -1.174347977120e+01 +7.300564768457e+01 -3.130041487219e-01 -1.681402262763e+01
 1.97000000e+01 -3.162064299746e-01 -1.686427487147e+01 -1.170233952385e+01 +7.292208750227e+01 -1.170233952385e+01 +7.292208750227e+01 -3.160786833136e-01 -1.689612990539e+01
 1.98000000e+01 -3.192944270628e-01 -1.694616773323e+01 -1.166143689509e+01 +7.283858108729e+01 -1.166143689509e+01 +7.283858108729e+01 -3.191667001264e-01 -1.697818435076e+01
 1.99000000e+01 -3.223958755844e-01 -1.702800760182e+01 -1.162076959673e+01 +7.275512862013e+01 -1.162076959673e+01 +7.275512862013e+01 -3.222681690645e-01 -1.706018576527e+01
 2.00000000e+01 -3.255107453857e-01 -1.710979427987e+01 -1.158033537445e+01 +7.267173028058e+01 -1.158033537445e+01 +7.267173028058e+01 -3.253830599409e-01 -1.714213395146e+01
