#  GHZ S DB R 50
 1.00000000e-02 -7.739393308490e-09 -6.325202754101e-04 -1.293981098967e+02 +8.999885567916e+01 -1.293981099128e+02 +8.999885513397e+01 -1.672068225339e-08 -6.305834967262e-04
 2.00000000e-02 -8.495442436541e-09 -1.265040544328e-03 -1.233766498980e+02 +9.000587055817e+01 -1.233766499353e+02 +9.000587065397e+01 -1.680393360807e-08 -1.261167571684e-03
 1.00000000e-01 -3.418780703901e-08 -6.325199436029e-03 -1.093966417367e+02 +9.003481478423e+01 -1.093966417374e+02 +9.003481477247e+01 -4.200522507798e-08 -6.305839384003e-03
 2.00000000e-01 -1.145533312950e-07 -1.265036843498e-02 -1.033754291824e+02 +9.006901635867e+01 -1.033754291825e+02 +9.006901635247e+01 -1.220304623467e-07 -1.261164898686e-02
 3.00000000e-01 -2.475340454167e-07 -1.897547482296e-02 -9.985264721420e+01 +9.010263459217e+01 -9.985264721437e+01 +9.010263458750e+01 -2.546649560111e-07 -1.891739695848e-02
 4.00000000e-01 -4.313661167576e-07 -2.530048873476e-02 -9.735257292349e+01 +9.013545181147e+01 -9.735257292361e+01 +9.013545180949e+01 -4.381462514406e-07 -2.522305473013e-02
 5.00000000e-01 -6.636632747243e-07 -3.162538361126e-02 -9.541274854320e+01 +9.016724831487e+01 -9.541274854334e+01 +9.016724831260e+01 -6.702352093439e-07 -3.152859642434e-02
 6.00000000e-01 -9.416096481242e-07 -3.795013681309e-02 -9.382720078435e+01 +9.019783524356e+01 -9.382720078447e+01 +9.019783524221e+01 -9.483062193997e-07 -3.783399946136e-02
 7.00000000e-01 -1.262145133794e-06 -4.427472974314e-02 -9.248607323355e+01 +9.022706743491e+01 -9.248607323365e+01 +9.022706743418e+01 -1.269476343780e-06 -4.413924475757e-02
 8.00000000e-01 -1.622120562512e-06 -5.059914758503e-02 -9.132380459456e+01 +9.025484395189e+01 -9.132380459465e+01 +9.025484395080e+01 -1.630724490503e-06 -5.044431662281e-02
 9.00000000e-01 -2.018408726699e-06 -5.692337882257e-02 -9.029811678656e+01 +9.028110261986e+01 -9.029811678667e+01 +9.028110261906e+01 -2.028991484435e-06 -5.674920247576e-02
 1.00000000e+00 -2.447972901558e-06 -6.324741469462e-02 -8.938015043006e+01 +9.030581255317e+01 -8.938015043017e+01 +9.030581255270e+01 -2.461251144858e-06 -6.305389249817e-02
 1.10000000e+00 -2.907901867435e-06 -6.957124868521e-02 -8.854932712026e+01 +9.032896674161e+01 -8.854932712034e+01 +9.032896674129e+01 -2.924556748594e-06 -6.935837923256e-02
 1.20000000e+00 -3.395422292671e-06 -7.589487609597e-02 -8.779045685235e+01 +9.035057563275e+01 -8.779045685241e+01 +9.035057563246e+01 -3.416066830500e-06 -7.566265723676e-02
 1.30000000e+00 -3.907898357458e-06 -8.221829371356e-02 -8.709200741617e+01 +9.037066202314e+01 -8.709200741624e+01 +9.037066202304e+01 -3.933063000328e-06 -8.196672274915e-02
 1.40000000e+00 -4.442825205054e-06 -8.854149956208e-02 -8.644501711617e+01 +9.038925721391e+01 -8.644501711623e+01 +9.038925721353e+01 -4.472950171221e-06 -8.827057345240e-02
 1.50000000e+00 -4.997820778704e-06 -9.486449272378e-02 -8.584238362891e+01 +9.040639824896e+01 -8.584238362896e+01 +9.040639824860e+01 -5.033260106469e-06 -9.457420823783e-02
 1.60000000e+00 -5.570618521669e-06 -1.011872732083e-01 -8.527838292048e+01 +9.042212600190e+01 -8.527838292054e+01 +9.042212600183e+01 -5.611647515895e-06 -1.008776270597e-01
 1.70000000e+00 -6.159061878605e-06 -1.075098418544e-01 -8.474833431858e+01 +9.043648388361e+01 -8.474833431863e+01 +9.043648388331e+01 -6.205887780987e-06 -1.071808307886e-01
 1.80000000e+00 -6.761100585789e-06 -1.138322002502e-01 -8.424836149481e+01 +9.044951697620e+01 -8.424836149485e+01 +9.044951697603e+01 -6.813872278869e-06 -1.134838211035e-01
 1.90000000e+00 -7.374788737644e-06 -1.201543506649e-01 -8.377521817540e+01 +9.046127145260e+01 -8.377521817544e+01 +9.046127145241e+01 -7.433608228012e-06 -1.197866003999e-01
 2.00000000e+00 -7.998283685484e-06 -1.264762959843e-01 -8.332615862046e+01 +9.047179416866e+01 -8.332615862048e+01 +9.047179416864e+01 -8.063215331417e-06 -1.260891717055e-01
 2.10000000e+00 -8.629845808014e-06 -1.327980396490e-01 -8.289883974368e+01 +9.048113235951e+01 -8.289883974371e+01 +9.048113235949e+01 -8.700924046630e-06 -1.323915386068e-01
 2.20000000e+00 -9.267838080298e-06 -1.391195855925e-01 -8.249124602831e+01 +9.048933339562e+01 -8.249124602834e+01 +9.048933339551e+01 -9.345072615625e-06 -1.386937051784e-01
 2.30000000e+00 -9.910725810520e-06 -1.454409381804e-01 -8.210163115183e+01 +9.049644456922e+01 -8.210163115185e+01 +9.049644456920e+01 -9.994108439005e-06 -1.449956759134e-01
 2.40000000e+00 -1.055707564482e-05 -1.517621021495e-01 -8.172847204869e+01 +9.050251290061e+01 -8.172847204871e+01 +9.050251290061e+01 -1.064658279151e-05 -1.512974556674e-01
 2.50000000e+00 -1.120555428960e-05 -1.580830825499e-01 -8.137043236224e+01 +9.050758495592e+01 -8.137043236226e+01 +9.050758495595e+01 -1.130115060024e-05 -1.575990495941e-01
 2.60000000e+00 -1.185492650284e-05 -1.644038846880e-01 -8.102633307486e+01 +9.051170667782e+01 -8.102633307488e+01 +9.051170667767e+01 -1.195656595481e-05 -1.639004630926e-01
 2.70000000e+00 -1.250405270744e-05 -1.707245140734e-01 -8.069512869010e+01 +9.051492322737e+01 -8.069512869012e+01 +9.051492322726e+01 -1.261168076306e-05 -1.702017017537e-01
 2.80000000e+00 -1.315188592468e-05 -1.770449763693e-01 -8.037588775438e+01 +9.051727884127e+01 -8.037588775439e+01 +9.051727884128e+01 -1.326544018310e-05 -1.765027713101e-01
 2.90000000e+00 -1.379746840875e-05 -1.833652773466e-01 -8.006777680424e+01 +9.051881670525e+01 -8.006777680425e+01 +9.051881670516e+01 -1.391687865997e-05 -1.828036775997e-01
 3.00000000e+00 -1.443992790904e-05 -1.896854228422e-01 -7.977004704150e+01 +9.051957884374e+01 -7.977004704151e+01 +9.051957884363e+01 -1.456511775105e-05 -1.891044265148e-01
 3.10000000e+00 -1.507847364024e-05 -1.960054187216e-01 -7.948202319922e+01 +9.051960602890e+01 -7.948202319923e+01 +9.051960602895e+01 -1.520935942504e-05 -1.954050239749e-01
 3.20000000e+00 -1.571239202873e-05 -2.023252708461e-01 -7.920309418059e+01 +9.051893770766e+01 -7.920309418059e+01 +9.051893770765e+01 -1.584888380735e-05 -2.017054758918e-01
 3.30000000e+00 -1.634104259299e-05 -2.086449850431e-01 -7.893270514263e+01 +9.051761194494e+01 -7.893270514264e+01 +9.051761194489e+01 -1.648304369505e-05 -2.080057881391e-01
 3.40000000e+00 -1.696385348747e-05 -2.149645670811e-01 -7.867035076574e+01 +9.051566538454e+01 -7.867035076575e+01 +9.051566538456e+01 -1.711126168511e-05 -2.143059665337e-01
 3.50000000e+00 -1.758031726919e-05 -2.212840226480e-01 -7.841556950200e+01 +9.051313322522e+01 -7.841556950201e+01 +9.051313322521e+01 -1.773302348875e-05 -2.206060168068e-01
 3.60000000e+00 -1.818998661233e-05 -2.276033573328e-01 -7.816793863657e+01 +9.051004920955e+01 -7.816793863657e+01 +9.051004920947e+01 -1.834787654378e-05 -2.269059445947e-01
 3.70000000e+00 -1.879247023777e-05 -2.339225766097e-01 -7.792707002802e+01 +9.050644562509e+01 -7.792707002802e+01 +9.050644562508e+01 -1.895542329133e-05 -2.332057554166e-01
 3.80000000e+00 -1.938742887550e-05 -2.402416858262e-01 -7.769260641863e+01 +9.050235331643e+01 -7.769260641863e+01 +9.050235331646e+01 -1.955531937258e-05 -2.395054546652e-01
 3.90000000e+00 -1.997457150471e-05 -2.465606901924e-01 -7.746421822546e+01 +9.049780170540e+01 -7.746421822547e+01 +9.049780170535e+01 -2.014726908869e-05 -2.458050475969e-01
 4.00000000e+00 -2.055365153697e-05 -2.528795947732e-01 -7.724160073900e+01 +9.049281881821e+01 -7.724160073900e+01 +9.049281881823e+01 -2.073102022918e-05 -2.521045393241e-01
 4.10000000e+00 -2.112446347199e-05 -2.591984044821e-01 -7.702447166856e+01 +9.048743131958e+01 -7.702447166856e+01 +9.048743131956e+01 -2.130636381825e-05 -2.584039348054e-01
 4.20000000e+00 -2.168683947039e-05 -2.655171240770e-01 -7.681256898435e+01 +9.048166455048e+01 -7.681256898436e+01 +9.048166455039e+01 -2.187312708393e-05 -2.647032388464e-01
 4.30000000e+00 -2.224064633727e-05 -2.718357581567e-01 -7.660564901401e+01 +9.047554256965e+01 -7.660564901401e+01 +9.047554256966e+01 -2.243117405786e-05 -2.710024560939e-01
 4.40000000e+00 -2.278578246437e-05 -2.781543111603e-01 -7.640348475834e+01 +9.046908819831e+01 -7.640348475834e+01 +9.046908819830e+01 -2.298039971801e-05 -2.773015910324e-01
 4.50000000e+00 -2.332217521286e-05 -2.844727873653e-01 -7.620586439669e+01 +9.046232306549e+01 -7.620586439670e+01 +9.046232306543e+01 -2.352072825094e-05 -2.836006479864e-01
 4.60000000e+00 -2.384977816115e-05 -2.907911908894e-01 -7.601258995685e+01 +9.045526765522e+01 -7.601258995685e+01 +9.045526765519e+01 -2.405211130153e-05 -2.898996311198e-01
 4.70000000e+00 -2.436856885900e-05 -2.971095256904e-01 -7.582347612801e+01 +9.044794135421e+01 -7.582347612801e+01 +9.044794135424e+01 -2.457452428158e-05 -2.961985444358e-01
 4.80000000e+00 -2.487854650541e-05 -3.034277955689e-01 -7.563834919890e+01 +9.044036249897e+01 -7.563834919891e+01 +9.044036249896e+01 -2.508796474201e-05 -3.024973917799e-01
 4.90000000e+00 -2.537972982226e-05 -3.097460041705e-01 -7.545704610536e+01 +9.043254842268e+01 -7.545704610536e+01 +9.043254842264e+01 -2.559245012789e-05 -3.087961768412e-01
 5.00000000e+00 -2.587215516039e-05 -3.160641549886e-01 -7.527941357411e+01 +9.042451550159e+01 -7.527941357412e+01 +9.042451550158e+01 -2.608801622782e-05 -3.150949031558e-01
 5.10000000e+00 -2.635587475608e-05 -3.223822513679e-01 -7.510530735137e+01 +9.041627920030e+01 -7.510530735137e+01 +9.041627920030e+01 -2.657471450272e-05 -3.213935741093e-01
 5.20000000e+00 -2.683095495865e-05 -3.287002965075e-01 -7.493459150616e+01 +9.040785411546e+01 -7.493459150616e+01 +9.040785411548e+01 -2.705261116493e-05 -3.276921929413e-01
 5.30000000e+00 -2.729747473665e-05 -3.350182934655e-01 -7.476713780002e+01 +9.039925401882e+01 -7.476713780002e+01 +9.039925401876e+01 -2.752178462464e-05 -3.339907627481e-01
 5.40000000e+00 -2.775552426904e-05 -3.413362451626e-01 -7.460282511545e+01 +9.039049189833e+01 -7.460282511545e+01 +9.039049189833e+01 -2.798232677535e-05 -3.402892864876e-01
 5.50000000e+00 -2.820520365008e-05 -3.476541543860e-01 -7.444153893680e+01 +9.038157999770e+01 -7.444153893680e+01 +9.038157999770e+01 -2.843433741041e-05 -3.465877669830e-01
 5.60000000e+00 -2.864662163663e-05 -3.539720237942e-01 -7.428317087769e+01 +9.037252985503e+01 -7.428317087769e+01 +9.037252985505e+01 -2.887792570518e-05 -3.528862069266e-01
 5.70000000e+00 -2.907989456622e-05 -3.602898559212e-01 -7.412761825027e+01 +9.036335233916e+01 -7.412761825027e+01 +9.036335233917e+01 -2.931321003672e-05 -3.591846088848e-01
 5.80000000e+00 -2.950514535702e-05 -3.666076531804e-01 -7.397478367176e+01 +9.035405768486e+01 -7.397478367176e+01 +9.035405768483e+01 -2.974031342732e-05 -3.654829753016e-01
 5.90000000e+00 -2.992250255797e-05 -3.729254178696e-01 -7.382457470455e+01 +9.034465552635e+01 -7.382457470455e+01 +9.034465552634e+01 -3.015936640566e-05 -3.717813085046e-01
 6.00000000e+00 -3.033209946736e-05 -3.792431521750e-01 -7.367690352642e+01 +9.033515492927e+01 -7.367690352642e+01 +9.033515492919e+01 -3.057050398653e-05 -3.780796107067e-01
 6.10000000e+00 -3.073407341737e-05 -3.855608581754e-01 -7.353168662789e+01 +9.032556442129e+01 -7.353168662789e+01 +9.032556442126e+01 -3.097386425811e-05 -3.843778840136e-01
 6.20000000e+00 -3.112856497552e-05 -3.918785378468e-01 -7.338884453412e+01 +9.031589202104e+01 -7.338884453412e+01 +9.031589202103e+01 -3.136959013026e-05 -3.906761304256e-01
 6.30000000e+00 -3.151571741627e-05 -3.981961930661e-01 -7.324830154893e+01 +9.030614526606e+01 -7.324830154893e+01 +9.030614526604e+01 -3.175782659297e-05 -3.969743518423e-01
 6.40000000e+00 -3.189567599870e-05 -4.045138256156e-01 -7.310998551889e+01 +9.029633123866e+01 -7.310998551889e+01 +9.029633123867e+01 -3.213872068257e-05 -4.032725500673e-01
 6.50000000e+00 -3.226858753646e-05 -4.108314371866e-01 -7.297382761558e+01 +9.028645659135e+01 -7.297382761558e+01 +9.028645659134e+01 -3.251242123777e-05 -4.095707268130e-01
 6.60000000e+00 -3.263459981623e-05 -4.171490293837e-01 -7.283976213444e+01 +9.027652757015e+01 -7.283976213444e+01 +9.027652757015e+01 -3.287907783119e-05 -4.158688837015e-01
 6.70000000e+00 -3.299386126506e-05 -4.234666037283e-01 -7.270772630857e+01 +9.026655003740e+01 -7.270772630857e+01 +9.026655003740e+01 -3.323884063143e-05 -4.221670222726e-01
 6.80000000e+00 -3.334652048169e-05 -4.297841616624e-01 -7.257766013634e+01 +9.025652949300e+01 -7.257766013634e+01 +9.025652949299e+01 -3.359186083996e-05 -4.284651439830e-01
 6.90000000e+00 -3.369272589711e-05 -4.361017045519e-01 -7.244950622141e+01 +9.024647109469e+01 -7.244950622141e+01 +9.024647109469e+01 -3.393828842393e-05 -4.347632502152e-01
 7.00000000e+00 -3.403262546883e-05 -4.424192336907e-01 -7.232320962428e+01 +9.023637967719e+01 -7.232320962428e+01 +9.023637967712e+01 -3.427827377192e-05 -4.410613422756e-01
 7.10000000e+00 -3.436636636660e-05 -4.487367503031e-01 -7.219871772418e+01 +9.022625977032e+01 -7.219871772418e+01 +9.022625977028e+01 -3.461196586756e-05 -4.473594214015e-01
 7.20000000e+00 -3.469409475627e-05 -4.550542555478e-01 -7.207598009069e+01 +9.021611561636e+01 -7.207598009069e+01 +9.021611561630e+01 -3.493951280924e-05 -4.536574887628e-01
 7.30000000e+00 -3.501595555592e-05 -4.613717505207e-01 -7.195494836402e+01 +9.020595118620e+01 -7.195494836402e+01 +9.020595118620e+01 -3.526106177733e-05 -4.599555454662e-01
 7.40000000e+00 -3.533209219378e-05 -4.676892362577e-01 -7.183557614344e+01 +9.019577019496e+01 -7.183557614344e+01 +9.019577019490e+01 -3.557675758964e-05 -4.662535925579e-01
 7.50000000e+00 -3.564264650596e-05 -4.740067137379e-01 -7.171781888316e+01 +9.018557611631e+01 -7.171781888316e+01 +9.018557611629e+01 -3.588674473324e-05 -4.725516310240e-01
 7.60000000e+00 -3.594775859091e-05 -4.803241838861e-01 -7.160163379496e+01 +9.017537219641e+01 -7.160163379496e+01 +9.017537219636e+01 -3.619116459395e-05 -4.788496617985e-01
 7.70000000e+00 -3.624756652008e-05 -4.866416475757e-01 -7.148697975724e+01 +9.016516146712e+01 -7.148697975724e+01 +9.016516146708e+01 -3.649015760099e-05 -4.851476857615e-01
 7.80000000e+00 -3.654220643820e-05 -4.929591056307e-01 -7.137381722982e+01 +9.015494675798e+01 -7.137381722982e+01 +9.015494675793e+01 -3.678386138223e-05 -4.914457037433e-01
 7.90000000e+00 -3.683181233572e-05 -4.992765588288e-01 -7.126210817412e+01 +9.014473070825e+01 -7.126210817412e+01 +9.014473070824e+01 -3.707241183654e-05 -4.977437165273e-01
 8.00000000e+00 -3.711651595238e-05 -5.055940079033e-01 -7.115181597838e+01 +9.013451577770e+01 -7.115181597839e+01 +9.013451577764e+01 -3.735594230828e-05 -5.040417248516e-01
 8.10000000e+00 -3.739644680610e-05 -5.119114535455e-01 -7.104290538739e+01 +9.012430425711e+01 -7.104290538739e+01 +9.012430425710e+01 -3.763458434144e-05 -5.103397294121e-01
 8.20000000e+00 -3.767173201366e-05 -5.182288964066e-01 -7.093534243657e+01 +9.011409827817e+01 -7.093534243657e+01 +9.011409827813e+01 -3.790846668443e-05 -5.166377308637e-01
 8.30000000e+00 -3.794249638518e-05 -5.245463371001e-01 -7.082909438996e+01 +9.010389982261e+01 -7.082909438996e+01 +9.010389982260e+01 -3.817771536147e-05 -5.229357298230e-01
 8.40000000e+00 -3.820886227655e-05 -5.308637762031e-01 -7.072412968193e+01 +9.009371073118e+01 -7.072412968193e+01 +9.009371073116e+01 -3.844245470051e-05 -5.292337268700e-01
 8.50000000e+00 -3.847094958372e-05 -5.371812142590e-01 -7.062041786225e+01 +9.008353271188e+01 -7.062041786225e+01 +9.008353271184e+01 -3.870280592632e-05 -5.355317225506e-01
 8.60000000e+00 -3.872887577444e-05 -5.434986517786e-01 -7.051792954442e+01 +9.007336734771e+01 -7.051792954442e+01 +9.007336734769e+01 -3.895888781044e-05 -5.418297173773e-01
 8.70000000e+00 -3.898275581597e-05 -5.498160892419e-01 -7.041663635687e+01 +9.006321610414e+01 -7.041663635687e+01 +9.006321610413e+01 -3.921081750241e-05 -5.481277118318e-01
 8.80000000e+00 -3.923270227345e-05 -5.561335271000e-01 -7.031651089700e+01 +9.005308033612e+01 -7.031651089700e+01 +9.005308033610e+01 -3.945870799649e-05 -5.544257063660e-01
 8.90000000e+00 -3.947882516619e-05 -5.624509657763e-01 -7.021752668774e+01 +9.004296129464e+01 -7.021752668774e+01 +9.004296129459e+01 -3.970267149138e-05 -5.607237014043e-01
 9.00000000e+00 -3.972123209499e-05 -5.687684056681e-01 -7.011965813653e+01 +9.003286013280e+01 -7.011965813653e+01 +9.003286013272e+01 -3.994281615104e-05 -5.670216973443e-01
 9.10000000e+00 -3.996002824790e-05 -5.750858471479e-01 -7.002288049655e+01 +9.002277791181e+01 -7.002288049656e+01 +9.002277791182e+01 -4.017924882217e-05 -5.733196945589e-01
 9.20000000e+00 -4.019531634910e-05 -5.814032905648e-01 -6.992716983005e+01 +9.001271560676e+01 -6.992716983005e+01 +9.001271560674e+01 -4.041207349897e-05 -5.796176933967e-01
 9.30000000e+00 -4.042719672163e-05 -5.877207362457e-01 -6.983250297362e+01 +9.000267411130e+01 -6.983250297362e+01 +9.000267411127e+01 -4.064139153633e-05 -5.859156941847e-01
 9.40000000e+00 -4.065576735003e-05 -5.940381844966e-01 -6.973885750532e+01 +8.999265424303e+01 -6.973885750532e+01 +8.999265424299e+01 -4.086730255619e-05 -5.922136972279e-01
 9.50000000e+00 -4.088112386779e-05 -6.003556356033e-01 -6.964621171354e+01 +8.998265674782e+01 -6.964621171354e+01 +8.998265674781e+01 -4.108990182273e-05 -5.985117028118e-01
 9.60000000e+00 -4.110335954872e-05 -6.066730898332e-01 -6.955454456745e+01 +8.997268230456e+01 -6.955454456745e+01 +8.997268230454e+01 -4.130928575540e-05 -6.048097112023e-01
 9.70000000e+00 -4.132256545542e-05 -6.129905474357e-01 -6.946383568899e+01 +8.996273152878e+01 -6.946383568899e+01 +8.996273152874e+01 -4.152554498766e-05 -6.111077226479e-01
 9.80000000e+00 -4.153883037179e-05 -6.193080086433e-01 -6.937406532623e+01 +8.995280497700e+01 -6.937406532623e+01 +8.995280497699e+01 -4.173876970942e-05 -6.174057373797e-01
 9.90000000e+00 -4.175224087535e-05 -6.256254736730e-01 -6.928521432819e+01 +8.994290315021e+01 -6.928521432819e+01 +8.994290315016e+01 -4.194904751169e-05 -6.237037556131e-01
 1.00000000e+01 -4.196288139026e-05 -6.319429427262e-01 -6.919726412075e+01 +8.993302649728e+01 -6.919726412075e+01 +8.993302649725e+01 -4.215646376949e-05 -6.300017775478e-01
 1.01000000e+01 -4.217083420954e-05 -6.382604159906e-01 -6.911019668390e+01 +8.992317541829e+01 -6.911019668390e+01 +8.992317541827e+01 -4.236110129655e-05 -6.362998033702e-01
 1.02000000e+01 -4.237617954036e-05 -6.445778936401e-01 -6.902399452999e+01 +8.991335026761e+01 -6.902399452999e+01 +8.991335026760e+01 -4.256304171183e-05 -6.425978332516e-01
 1.03000000e+01 -4.257899552238e-05 -6.508953758363e-01 -6.893864068307e+01 +8.990355135676e+01 -6.893864068307e+01 +8.990355135675e+01 -4.276236410004e-05 -6.488958673520e-01
 1.04000000e+01 -4.277935833765e-05 -6.572128627286e-01 -6.885411865927e+01 +8.989377895712e+01 -6.885411865927e+01 +8.989377895710e+01 -4.295914458440e-05 -6.551939058184e-01
 1.05000000e+01 -4.297734219814e-05 -6.635303544552e-01 -6.877041244801e+01 +8.988403330258e+01 -6.877041244801e+01 +8.988403330254e+01 -4.315345902491e-05 -6.614919487871e-01
 1.06000000e+01 -4.317301935722e-05 -6.698478511435e-01 -6.868750649417e+01 +8.987431459179e+01 -6.868750649417e+01 +8.987431459177e+01 -4.334538004334e-05 -6.677899963831e-01
 1.07000000e+01 -4.336646023126e-05 -6.761653529111e-01 -6.860538568108e+01 +8.986462299068e+01 -6.860538568108e+01 +8.986462299068e+01 -4.353497892780e-05 -6.740880487215e-01
 1.08000000e+01 -4.355773339571e-05 -6.824828598660e-01 -6.852403531425e+01 +8.985495863448e+01 -6.852403531425e+01 +8.985495863443e+01 -4.372232493840e-05 -6.803861059077e-01
 1.09000000e+01 -4.374690566225e-05 -6.888003721070e-01 -6.844344110590e+01 +8.984532162955e+01 -6.844344110590e+01 +8.984532162954e+01 -4.390748535647e-05 -6.866841680383e-01
 1.10000000e+01 -4.393404203446e-05 -6.951178897250e-01 -6.836358916014e+01 +8.983571205576e+01 -6.836358916014e+01 +8.983571205575e+01 -4.409052589245e-05 -6.929822352013e-01
 1.11000000e+01 -4.411920586886e-05 -7.014354128024e-01 -6.828446595886e+01 +8.982612996779e+01 -6.828446595886e+01 +8.982612996777e+01 -4.427151130208e-05 -6.992803074769e-01
 1.12000000e+01 -4.430245880833e-05 -7.077529414146e-01 -6.820605834823e+01 +8.981657539709e+01 -6.820605834823e+01 +8.981657539704e+01 -4.445050280877e-05 -7.055783849373e-01
 1.13000000e+01 -4.448386089980e-05 -7.140704756296e-01 -6.812835352579e+01 +8.980704835339e+01 -6.812835352579e+01 +8.980704835334e+01 -4.462756153853e-05 -7.118764676480e-01
 1.14000000e+01 -4.466347061159e-05 -7.203880155090e-01 -6.805133902807e+01 +8.979754882621e+01 -6.805133902807e+01 +8.979754882619e+01 -4.480274659519e-05 -7.181745556677e-01
 1.15000000e+01 -4.484134488165e-05 -7.267055611080e-01 -6.797500271886e+01 +8.978807678631e+01 -6.797500271886e+01 +8.978807678631e+01 -4.497611543548e-05 -7.244726490489e-01
 1.16000000e+01 -4.501753911268e-05 -7.330231124759e-01 -6.789933277784e+01 +8.977863218691e+01 -6.789933277784e+01 +8.977863218690e+01 -4.514772401276e-05 -7.307707478379e-01
 1.17000000e+01 -4.519210722910e-05 -7.393406696567e-01 -6.782431768979e+01 +8.976921496503e+01 -6.782431768979e+01 +8.976921496501e+01 -4.531762668828e-05 -7.370688520756e-01
 1.18000000e+01 -4.536510178018e-05 -7.456582326889e-01 -6.774994623425e+01 +8.975982504257e+01 -6.774994623425e+01 +8.975982504257e+01 -4.548587659473e-05 -7.433669617980e-01
 1.19000000e+01 -4.553657390053e-05 -7.519758016064e-01 -6.767620747555e+01 +8.975046232757e+01 -6.767620747555e+01 +8.975046232755e+01 -4.565252540481e-05 -7.496650770357e-01
 1.20000000e+01 -4.570657336021e-05 -7.582933764384e-01 -6.760309075333e+01 +8.974112671504e+01 -6.760309075333e+01 +8.974112671503e+01 -4.581762341993e-05 -7.559631978150e-01
 1.21000000e+01 -4.587514862746e-05 -7.646109572097e-01 -6.753058567340e+01 +8.973181808812e+01 -6.753058567340e+01 +8.973181808811e+01 -4.598121930218e-05 -7.622613241574e-01
 1.22000000e+01 -4.604234689760e-05 -7.709285439413e-01 -6.745868209901e+01 +8.972253631890e+01 -6.745868209901e+01 +8.972253631886e+01 -4.614336112728e-05 -7.685594560812e-01
 1.23000000e+01 -4.620821407085e-05 -7.772461366502e-01 -6.738737014243e+01 +8.971328126922e+01 -6.738737014243e+01 +8.971328126923e+01 -4.630409508767e-05 -7.748575936000e-01
 1.24000000e+01 -4.637279489796e-05 -7.835637353498e-01 -6.731664015694e+01 +8.970405279171e+01 -6.731664015694e+01 +8.970405279170e+01 -4.646346604401e-05 -7.811557367243e-01
 1.25000000e+01 -4.653613291461e-05 -7.898813400505e-01 -6.724648272904e+01 +8.969485073027e+01 -6.724648272903e+01 +8.969485073025e+01 -4.662151836229e-05 -7.874538854615e-01
 1.26000000e+01 -4.669827050991e-05 -7.961989507593e-01 -6.717688867105e+01 +8.968567492096e+01 -6.717688867105e+01 +8.968567492091e+01 -4.677829448945e-05 -7.937520398153e-01
 1.27000000e+01 -4.685924896686e-05 -8.025165674804e-01 -6.710784901399e+01 +8.967652519264e+01 -6.710784901399e+01 +8.967652519261e+01 -4.693383664103e-05 -8.000501997867e-01
 1.28000000e+01 -4.701910846047e-05 -8.088341902153e-01 -6.703935500071e+01 +8.966740136755e+01 -6.703935500071e+01 +8.966740136751e+01 -4.708818517814e-05 -8.063483653740e-01
 1.29000000e+01 -4.717788816476e-05 -8.151518189629e-01 -6.697139807929e+01 +8.965830326199e+01 -6.697139807929e+01 +8.965830326196e+01 -4.724137925937e-05 -8.126465365729e-01
 1.30000000e+01 -4.733562612936e-05 -8.214694537198e-01 -6.690396989670e+01 +8.964923068680e+01 -6.690396989670e+01 +8.964923068678e+01 -4.739345786974e-05 -8.189447133771e-01
 1.31000000e+01 -4.749235950125e-05 -8.277870944802e-01 -6.683706229273e+01 +8.964018344788e+01 -6.683706229273e+01 +8.964018344788e+01 -4.754445798846e-05 -8.252428957773e-01
 1.32000000e+01 -4.764812441106e-05 -8.341047412366e-01 -6.677066729411e+01 +8.963116134678e+01 -6.677066729411e+01 +8.963116134675e+01 -4.769441640187e-05 -8.315410837627e-01
 1.33000000e+01 -4.780295605975e-05 -8.404223939792e-01 -6.670477710885e+01 +8.962216418099e+01 -6.670477710885e+01 +8.962216418099e+01 -4.784336866681e-05 -8.378392773208e-01
 1.34000000e+01 -4.795688871775e-05 -8.467400526967e-01 -6.663938412083e+01 +8.961319174452e+01 -6.663938412083e+01 +8.961319174450e+01 -4.799134915107e-05 -8.441374764363e-01
 1.35000000e+01 -4.810995575670e-05 -8.530577173760e-01 -6.657448088456e+01 +8.960424382828e+01 -6.657448088456e+01 +8.960424382824e+01 -4.813839192544e-05 -8.504356810935e-01
 1.36000000e+01 -4.826218973437e-05 -8.593753880026e-01 -6.651006012013e+01 +8.959532022032e+01 -6.651006012013e+01 +8.959532022031e+01 -4.828452944355e-05 -8.567338912743e-01
 1.37000000e+01 -4.841362227215e-05 -8.656930645604e-01 -6.644611470836e+01 +8.958642070642e+01 -6.644611470836e+01 +8.958642070641e+01 -4.842979393623e-05 -8.630321069595e-01
 1.38000000e+01 -4.856428427589e-05 -8.720107470322e-01 -6.638263768613e+01 +8.957754507018e+01 -6.638263768613e+01 +8.957754507017e+01 -4.857421674522e-05 -8.693303281284e-01
 1.39000000e+01 -4.871420578647e-05 -8.783284353994e-01 -6.631962224185e+01 +8.956869309350e+01 -6.631962224185e+01 +8.956869309348e+01 -4.871782788150e-05 -8.756285547593e-01
 1.40000000e+01 -4.886341610412e-05 -8.846461296424e-01 -6.625706171112e+01 +8.955986455681e+01 -6.625706171112e+01 +8.955986455677e+01 -4.886065678706e-05 -8.819267868292e-01
 1.41000000e+01 -4.901194375475e-05 -8.909638297406e-01 -6.619494957254e+01 +8.955105923929e+01 -6.619494957254e+01 +8.955105923928e+01 -4.900273306399e-05 -8.882250243144e-01
 1.42000000e+01 -4.915981653907e-05 -8.972815356723e-01 -6.613327944364e+01 +8.954227691925e+01 -6.613327944365e+01 +8.954227691923e+01 -4.914408384184e-05 -8.945232671898e-01
 1.43000000e+01 -4.930706158278e-05 -9.035992474152e-01 -6.607204507701e+01 +8.953351737425e+01 -6.607204507701e+01 +8.953351737422e+01 -4.928473684224e-05 -9.008215154298e-01
 1.44000000e+01 -4.945370525359e-05 -9.099169649460e-01 -6.601124035648e+01 +8.952478038135e+01 -6.601124035648e+01 +8.952478038133e+01 -4.942471872223e-05 -9.071197690077e-01
 1.45000000e+01 -4.959977330881e-05 -9.162346882408e-01 -6.595085929352e+01 +8.951606571736e+01 -6.595085929352e+01 +8.951606571732e+01 -4.956405567497e-05 -9.134180278965e-01
 1.46000000e+01 -4.974529083264e-05 -9.225524172750e-01 -6.589089602371e+01 +8.950737315893e+01 -6.589089602371e+01 +8.950737315891e+01 -4.970277313569e-05 -9.197162920681e-01
 1.47000000e+01 -4.989028226993e-05 -9.288701520235e-01 -6.583134480335e+01 +8.949870248291e+01 -6.583134480335e+01 +8.949870248290e+01 -4.984089546823e-05 -9.260145614941e-01
 1.48000000e+01 -5.003477144932e-05 -9.351878924607e-01 -6.577220000617e+01 +8.949005346629e+01 -6.577220000617e+01 +8.949005346629e+01 -4.997844669796e-05 -9.323128361457e-01
 1.49000000e+01 -5.017878162279e-05 -9.415056385603e-01 -6.571345612016e+01 +8.948142588655e+01 -6.571345612016e+01 +8.948142588654e+01 -5.011545065351e-05 -9.386111159932e-01
 1.50000000e+01 -5.032233542514e-05 -9.478233902959e-01 -6.565510774452e+01 +8.947281952169e+01 -6.565510774452e+01 +8.947281952167e+01 -5.025192970159e-05 -9.449094010069e-01
 1.51000000e+01 -5.046545494728e-05 -9.541411476406e-01 -6.559714958667e+01 +8.946423415034e+01 -6.559714958667e+01 +8.946423415033e+01 -5.038790667568e-05 -9.512076911564e-01
 1.52000000e+01 -5.060816174976e-05 -9.604589105671e-01 -6.553957645942e+01 +8.945566955202e+01 -6.553957645941e+01 +8.945566955201e+01 -5.052340322983e-05 -9.575059864113e-01
 1.53000000e+01 -5.075047680583e-05 -9.667766790480e-01 -6.548238327816e+01 +8.944712550719e+01 -6.548238327816e+01 +8.944712550716e+01 -5.065844037781e-05 -9.638042867411e-01
 1.54000000e+01 -5.089242061237e-05 -9.730944530556e-01 -6.542556505823e+01 +8.943860179722e+01 -6.542556505823e+01 +8.943860179721e+01 -5.079303862132e-05 -9.701025921142e-01
 1.55000000e+01 -5.103401316579e-05 -9.794122325620e-01 -6.536911691226e+01 +8.943009820468e+01 -6.536911691226e+01 +8.943009820467e+01 -5.092721882658e-05 -9.764009024996e-01
 1.56000000e+01 -5.117527392051e-05 -9.857300175392e-01 -6.531303404772e+01 +8.942161451339e+01 -6.531303404772e+01 +8.942161451337e+01 -5.106099990993e-05 -9.826992178658e-01
 1.57000000e+01 -5.131622191439e-05 -9.920478079590e-01 -6.525731176445e+01 +8.941315050836e+01 -6.525731176445e+01 +8.941315050838e+01 -5.119440186969e-05 -9.889975381816e-01
 1.58000000e+01 -5.145687570022e-05 -9.983656037931e-01 -6.520194545232e+01 +8.940470597609e+01 -6.520194545232e+01 +8.940470597608e+01 -5.132744325383e-05 -9.952958634153e-01
 1.59000000e+01 -5.159725334574e-05 -1.004683405013e+00 -6.514693058895e+01 +8.939628070443e+01 -6.514693058895e+01 +8.939628070443e+01 -5.146014182149e-05 -1.001594193535e+00
 1.60000000e+01 -5.173737252907e-05 -1.011001211591e+00 -6.509226273750e+01 +8.938787448278e+01 -6.509226273750e+01 +8.938787448278e+01 -5.159251543885e-05 -1.007892528510e+00
 1.61000000e+01 -5.187725044717e-05 -1.017319023499e+00 -6.503793754456e+01 +8.937948710213e+01 -6.503793754456e+01 +8.937948710210e+01 -5.172458238484e-05 -1.014190868307e+00
 1.62000000e+01 -5.201690395368e-05 -1.023636840707e+00 -6.498395073800e+01 +8.937111835501e+01 -6.498395073800e+01 +8.937111835498e+01 -5.185635866352e-05 -1.020489212895e+00
 1.63000000e+01 -5.215634945286e-05 -1.029954663188e+00 -6.493029812506e+01 +8.936276803567e+01 -6.493029812506e+01 +8.936276803563e+01 -5.198786191928e-05 -1.026787562244e+00
 1.64000000e+01 -5.229560295938e-05 -1.036272490914e+00 -6.487697559032e+01 +8.935443594003e+01 -6.487697559032e+01 +8.935443594002e+01 -5.211910698452e-05 -1.033085916319e+00
 1.65000000e+01 -5.243468010025e-05 -1.042590323857e+00 -6.482397909387e+01 +8.934612186579e+01 -6.482397909387e+01 +8.934612186578e+01 -5.225011060101e-05 -1.039384275092e+00
 1.66000000e+01 -5.257359613604e-05 -1.048908161988e+00 -6.477130466943e+01 +8.933782561245e+01 -6.477130466943e+01 +8.933782561244e+01 -5.238088819230e-05 -1.045682638530e+00
 1.67000000e+01 -5.271236599173e-05 -1.055226005279e+00 -6.471894842263e+01 +8.932954698127e+01 -6.471894842263e+01 +8.932954698125e+01 -5.251145473156e-05 -1.051981006602e+00
 1.68000000e+01 -5.285100423646e-05 -1.061543853704e+00 -6.466690652922e+01 +8.932128577534e+01 -6.466690652922e+01 +8.932128577532e+01 -5.264182489114e-05 -1.058279379277e+00
 1.69000000e+01 -5.298952502278e-05 -1.067861707234e+00 -6.461517523345e+01 +8.931304179969e+01 -6.461517523345e+01 +8.931304179967e+01 -5.277201301064e-05 -1.064577756525e+00
 1.70000000e+01 -5.312794228723e-05 -1.074179565842e+00 -6.456375084645e+01 +8.930481486114e+01 -6.456375084645e+01 +8.930481486113e+01 -5.290203303915e-05 -1.070876138313e+00
 1.71000000e+01 -5.326626954879e-05 -1.080497429501e+00 -6.451262974459e+01 +8.929660476848e+01 -6.451262974459e+01 +8.929660476847e+01 -5.303189837222e-05 -1.077174524612e+00
 1.72000000e+01 -5.340452006801e-05 -1.086815298184e+00 -6.446180836804e+01 +8.928841133238e+01 -6.446180836804e+01 +8.928841133235e+01 -5.316162347291e-05 -1.083472915391e+00
 1.73000000e+01 -5.354270676985e-05 -1.093133171863e+00 -6.441128321923e+01 +8.928023436545e+01 -6.441128321923e+01 +8.928023436544e+01 -5.329122027869e-05 -1.089771310621e+00
 1.74000000e+01 -5.368084228031e-05 -1.099451050513e+00 -6.436105086140e+01 +8.927207368223e+01 -6.436105086140e+01 +8.927207368222e+01 -5.342070250238e-05 -1.096069710271e+00
 1.75000000e+01 -5.381893897662e-05 -1.105768934107e+00 -6.431110791725e+01 +8.926392909922e+01 -6.431110791725e+01 +8.926392909921e+01 -5.355008191945e-05 -1.102368114311e+00
 1.76000000e+01 -5.395700890138e-05 -1.112086822618e+00 -6.426145106754e+01 +8.925580043487e+01 -6.426145106754e+01 +8.925580043485e+01 -5.367937092544e-05 -1.108666522713e+00
 1.77000000e+01 -5.409506382137e-05 -1.118404716022e+00 -6.421207704976e+01 +8.924768750956e+01 -6.421207704977e+01 +8.924768750955e+01 -5.380858178185e-05 -1.114964935446e+00
 1.78000000e+01 -5.423311528642e-05 -1.124722614291e+00 -6.416298265690e+01 +8.923959014567e+01 -6.416298265690e+01 +8.923959014564e+01 -5.393772576558e-05 -1.121263352482e+00
 1.79000000e+01 -5.437117454355e-05 -1.131040517402e+00 -6.411416473614e+01 +8.923150816747e+01 -6.411416473614e+01 +8.923150816746e+01 -5.406681424516e-05 -1.127561773791e+00
 1.80000000e+01 -5.450925260256e-05 -1.137358425328e+00 -6.406562018767e+01 +8.922344140129e+01 -6.406562018767e+01 +8.922344140127e+01 -5.419585887166e-05 -1.133860199347e+00
 1.81000000e+01 -5.464736023022e-05 -1.143676338045e+00 -6.401734596349e+01 +8.921538967529e+01 -6.401734596349e+01 +8.921538967527e+01 -5.432486985063e-05 -1.140158629119e+00
 1.82000000e+01 -5.478550792815e-05 -1.149994255529e+00 -6.396933906630e+01 +8.920735281966e+01 -6.396933906630e+01 +8.920735281966e+01 -5.445385845126e-05 -1.146457063081e+00
 1.83000000e+01 -5.492370599926e-05 -1.156312177754e+00 -6.392159654835e+01 +8.919933066654e+01 -6.392159654835e+01 +8.919933066653e+01 -5.458283486367e-05 -1.152755501205e+00
 1.84000000e+01 -5.506196448037e-05 -1.162630104697e+00 -6.387411551035e+01 +8.919132304994e+01 -6.387411551035e+01 +8.919132304991e+01 -5.471180897710e-05 -1.159053943463e+00
 1.85000000e+01 -5.520029323080e-05 -1.168948036335e+00 -6.382689310045e+01 +8.918332980584e+01 -6.382689310045e+01 +8.918332980584e+01 -5.484079107230e-05 -1.165352389828e+00
 1.86000000e+01 -5.533870185051e-05 -1.175265972643e+00 -6.377992651317e+01 +8.917535077216e+01 -6.377992651317e+01 +8.917535077213e+01 -5.496979053995e-05 -1.171650840273e+00
 1.87000000e+01 -5.547719974369e-05 -1.181583913599e+00 -6.373321298844e+01 +8.916738578866e+01 -6.373321298844e+01 +8.916738578865e+01 -5.509881776979e-05 -1.177949294772e+00
 1.88000000e+01 -5.561579611682e-05 -1.187901859179e+00 -6.368674981061e+01 +8.915943469709e+01 -6.368674981061e+01 +8.915943469706e+01 -5.522788102423e-05 -1.184247753299e+00
 1.89000000e+01 -5.575449996908e-05 -1.194219809362e+00 -6.364053430748e+01 +8.915149734098e+01 -6.364053430748e+01 +8.915149734097e+01 -5.535699019155e-05 -1.190546215828e+00
 1.90000000e+01 -5.589332013762e-05 -1.200537764124e+00 -6.359456384943e+01 +8.914357356583e+01 -6.359456384943e+01 +8.914357356581e+01 -5.548615386878e-05 -1.196844682333e+00
 1.91000000e+01 -5.603226519924e-05 -1.206855723444e+00 -6.354883584846e+01 +8.913566321897e+01 -6.354883584846e+01 +8.913566321897e+01 -5.561538074650e-05 -1.203143152788e+00
 1.92000000e+01 -5.617134361115e-05 -1.213173687300e+00 -6.350334775738e+01 +8.912776614955e+01 -6.350334775738e+01 +8.912776614954e+01 -5.574467940921e-05 -1.209441627169e+00
 1.93000000e+01 -5.631056360201e-05 -1.219491655671e+00 -6.345809706890e+01 +8.911988220857e+01 -6.345809706890e+01 +8.911988220855e+01 -5.587405835655e-05 -1.215740105451e+00
 1.94000000e+01 -5.644993329345e-05 -1.225809628536e+00 -6.341308131485e+01 +8.911201124886e+01 -6.341308131485e+01 +8.911201124884e+01 -5.600352580658e-05 -1.222038587609e+00
 1.95000000e+01 -5.658946054190e-05 -1.232127605873e+00 -6.336829806534e+01 +8.910415312506e+01 -6.336829806534e+01 +8.910415312503e+01 -5.613308937464e-05 -1.228337073620e+00
 1.96000000e+01 -5.672915310929e-05 -1.238445587662e+00 -6.332374492797e+01 +8.909630769355e+01 -6.332374492797e+01 +8.909630769353e+01 -5.626275730387e-05 -1.234635563459e+00
 1.97000000e+01 -5.686901857819e-05 -1.244763573884e+00 -6.327941954709e+01 +8.908847481252e+01 -6.327941954709e+01 +8.908847481252e+01 -5.639253696081e-05 -1.240934057103e+00
 1.98000000e+01 -5.700906435566e-05 -1.251081564518e+00 -6.323531960304e+01 +8.908065434196e+01 -6.323531960304e+01 +8.908065434194e+01 -5.652243652784e-05 -1.247232554529e+00
 1.99000000e+01 -5.714929771663e-05 -1.257399559545e+00 -6.319144281141e+01 +8.907284614351e+01 -6.319144281141e+01 +8.907284614349e+01 -5.665246249396e-05 -1.253531055714e+00
 2.00000000e+01 -5.728972575669e-05 -1.263717558945e+00 -6.314778692234e+01 +8.906505008058e+01 -6.314778692233e+01 +8.906505008058e+01 -5.678262304445e-05 -1.259829560634e+00
