#  GHZ S DB R 50
 1.00000000e-02 -4.359464162338e-06 -5.075619538042e-02 -6.146058727438e+01 +8.995013775508e+01 -6.146058727444e+01 +8.995013775446e+01 -3.961143520134e-06 -5.003385786927e-02
 2.00000000e-02 -1.440111234004e-05 -1.015122870631e-01 -5.543999030335e+01 +8.990035493859e+01 -5.543999030336e+01 +8.990035493822e+01 -1.375935429554e-05 -1.000680352916e-01
 1.00000000e-01 -3.357681530394e-04 -5.075448208146e-01 -4.146081202787e+01 +8.950173585696e+01 -4.146081202787e+01 +8.950173585688e+01 -3.301232701146e-04 -5.003312911315e-01
 2.00000000e-01 -1.339396144436e-03 -1.014985996612e+00 -3.544095193451e+01 +8.900333376951e+01 -3.544095193451e+01 +8.900333376947e+01 -1.319430691523e-03 -1.000572509824e+00
 3.00000000e-01 -3.009902327600e-03 -1.522222147763e+00 -3.192037171542e+01 +8.850474331664e+01 -3.192037171542e+01 +8.850474331661e+01 -2.967063584843e-03 -1.500630628511e+00
 4.00000000e-01 -5.344153444650e-03 -2.029156056086e+00 -2.942335977152e+01 +8.800589482700e+01 -2.942335977152e+01 +8.800589482697e+01 -5.270915288448e-03 -2.000415840708e+00
 5.00000000e-01 -8.338123097939e-03 -2.535695867509e+00 -2.748745735591e+01 +8.750675440505e+01 -2.748745735591e+01 +8.750675440503e+01 -8.228075965514e-03 -2.499841313877e+00
 6.00000000e-01 -1.198717511960e-02 -3.041755640780e+00 -2.590668425373e+01 +8.700732381116e+01 -2.590668425373e+01 +8.700732381115e+01 -1.183502638116e-02 -2.998824305767e+00
 7.00000000e-01 -1.628632620007e-02 -3.547255257527e+00 -2.457117307661e+01 +8.650763859575e+01 -2.457117307661e+01 +8.650763859573e+01 -1.608786309229e-02 -3.497286375565e+00
 8.00000000e-01 -2.123045757790e-02 -4.052119846557e+00 -2.341534894317e+01 +8.600776357149e+01 -2.341534894317e+01 +8.600776357147e+01 -2.098247811409e-02 -3.995153018046e+00
 9.00000000e-01 -2.681446244670e-02 -4.556278930455e+00 -2.239691857106e+01 +8.550778661830e+01 -2.239691857106e+01 +8.550778661828e+01 -2.651467749121e-02 -4.492353036310e+00
 1.00000000e+00 -3.303333012527e-02 -5.059665488758e+00 -2.148700641029e+01 +8.500781204345e+01 -2.148700641029e+01 +8.500781204343e+01 -3.268024583808e-02 -4.988817861324e+00
 1.10000000e+00 -3.988217769012e-02 -5.562215081023e+00 -2.066501733802e+01 +8.450795442577e+01 -2.066501733802e+01 +8.450795442576e+01 -3.947497017775e-02 -5.484480933886e+00
 1.20000000e+00 -4.735624392280e-02 -6.063865112681e+00 -1.991574436753e+01 +8.400833347664e+01 -1.991574436753e+01 +8.400833347663e+01 -4.689463662833e-02 -5.979277202614e+00
 1.30000000e+00 -5.545086024105e-02 -6.564554274557e+00 -1.922763824218e+01 +8.350907010624e+01 -1.922763824218e+01 +8.350907010623e+01 -5.493501145579e-02 -6.473142751772e+00
 1.40000000e+00 -6.416141061834e-02 -7.064222150961e+00 -1.859172030052e+01 +8.301028364689e+01 -1.859172030052e+01 +8.301028364688e+01 -6.359181516758e-02 -6.966014549375e+00
 1.50000000e+00 -7.348328899725e-02 -7.562808971632e+00 -1.800087144254e+01 +8.251209005686e+01 -1.800087144254e+01 +8.251209005685e+01 -7.286069546259e-02 -7.457830294617e+00
 1.60000000e+00 -8.341185942583e-02 -8.060255475703e+00 -1.744935112933e+01 +8.201460088290e+01 -1.744935112933e+01 +8.201460088289e+01 -8.273720244457e-02 -7.948528340717e+00
 1.70000000e+00 -9.394242158849e-02 -8.556502856708e+00 -1.693246251788e+01 +8.151792276737e+01 -1.693246251788e+01 +8.151792276736e+01 -9.321676772922e-02 -8.438047671077e+00
 1.80000000e+00 -1.050701826586e-01 -9.051492762397e+00 -1.644631349083e+01 +8.102215731950e+01 -1.644631349083e+01 +8.102215731949e+01 -1.042946879151e-01 -8.926327910720e+00
 1.90000000e+00 -1.167902353541e-01 -9.545167329165e+00 -1.598764240242e+01 +8.052740121197e+01 -1.598764240242e+01 +8.052740121196e+01 -1.159661122269e-01 -9.413309359480e+00
 2.00000000e+00 -1.290975415468e-01 -1.003746923650e+01 -1.555368858278e+01 +8.003374640362e+01 -1.555368858278e+01 +8.003374640361e+01 -1.282260338244e-01 -9.898933037454e+00
 2.10000000e+00 -1.419869205773e-01 -1.052834177157e+01 -1.514209447409e+01 +7.954128042140e+01 -1.514209447409e+01 +7.954128042140e+01 -1.410692841762e-01 -1.038314073643e+01
 2.20000000e+00 -1.554530414218e-01 -1.101772889765e+01 -1.475083055514e+01 +7.905008665965e+01 -1.475083055514e+01 +7.905008665964e+01 -1.544905299212e-01 -1.086587507333e+01
 2.30000000e+00 -1.694904179471e-01 -1.150557532234e+01 -1.437813696804e+01 +7.856024467192e+01 -1.437813696804e+01 +7.856024467191e+01 -1.684842717156e-01 -1.134707954338e+01
 2.40000000e+00 -1.840934066119e-01 -1.199182656352e+01 -1.402247757688e+01 +7.807183044249e+01 -1.402247757688e+01 +7.807183044249e+01 -1.830448446587e-01 -1.182669857153e+01
 2.50000000e+00 -1.992562060971e-01 -1.247642901176e+01 -1.368250341036e+01 +7.758491663191e+01 -1.368250341036e+01 +7.758491663190e+01 -1.981664199758e-01 -1.230467756170e+01
 2.60000000e+00 -2.149728584599e-01 -1.295932998864e+01 -1.335702327828e+01 +7.709957279530e+01 -1.335702327828e+01 +7.709957279529e+01 -2.138430077106e-01 -1.278096294317e+01
 2.70000000e+00 -2.312372514938e-01 -1.344047780083e+01 -1.304497993615e+01 +7.661586557471e+01 -1.304497993615e+01 +7.661586557471e+01 -2.300684602363e-01 -1.325550221436e+01
 2.80000000e+00 -2.480431220511e-01 -1.391982179001e+01 -1.274543058670e+01 +7.613385886778e+01 -1.274543058670e+01 +7.613385886778e+01 -2.468364764405e-01 -1.372824398364e+01
 2.90000000e+00 -2.653840601364e-01 -1.439731237868e+01 -1.245753080452e+01 +7.565361397541e+01 -1.245753080452e+01 +7.565361397541e+01 -2.641406064679e-01 -1.419913800744e+01
 3.00000000e+00 -2.832535136215e-01 -1.487290111200e+01 -1.218052118733e+01 +7.517518973128e+01 -1.218052118733e+01 +7.517518973128e+01 -2.819742569322e-01 -1.466813522550e+01
 3.10000000e+00 -3.016447934657e-01 -1.534654069602e+01 -1.191371619712e+01 +7.469864261568e+01 -1.191371619712e+01 +7.469864261567e+01 -3.003306965218e-01 -1.513518779351e+01
 3.20000000e+00 -3.205510793435e-01 -1.581818503231e+01 -1.165649477388e+01 +7.422402685581e+01 -1.165649477388e+01 +7.422402685580e+01 -3.192030619396e-01 -1.560024911294e+01
 3.30000000e+00 -3.399654256064e-01 -1.628778924926e+01 -1.140829239450e+01 +7.375139451462e+01 -1.140829239450e+01 +7.375139451462e+01 -3.385843641242e-01 -1.606327385831e+01
 3.40000000e+00 -3.598807675135e-01 -1.675530973020e+01 -1.116859431786e+01 +7.328079556962e+01 -1.116859431787e+01 +7.328079556962e+01 -3.584674947078e-01 -1.652421800184e+01
 3.50000000e+00 -3.802899276816e-01 -1.722070413850e+01 -1.093692980984e+01 +7.281227798311e+01 -1.093692980984e+01 +7.281227798311e+01 -3.788452326737e-01 -1.698303883556e+01
 3.60000000e+00 -4.011856227105e-01 -1.768393143979e+01 -1.071286718240e+01 +7.234588776495e+01 -1.071286718240e+01 +7.234588776494e+01 -3.997102511769e-01 -1.743969499088e+01
 3.70000000e+00 -4.225604699495e-01 -1.814495192141e+01 -1.049600951300e+01 +7.188166902885e+01 -1.049600951300e+01 +7.188166902885e+01 -4.210551244988e-01 -1.789414645565e+01
 3.80000000e+00 -4.444069943737e-01 -1.860372720925e+01 -1.028599093551e+01 +7.141966404303e+01 -1.028599093551e+01 +7.141966404303e+01 -4.428723351067e-01 -1.834635458883e+01
 3.90000000e+00 -4.667176355451e-01 -1.906022028198e+01 -1.008247341329e+01 +7.095991327584e+01 -1.008247341329e+01 +7.095991327584e+01 -4.651542807942e-01 -1.879628213270e+01
 4.00000000e+00 -4.894847546357e-01 -1.951439548288e+01 -9.885143921578e+00 +7.050245543724e+01 -9.885143921578e+00 +7.050245543724e+01 -4.878932818759e-01 -1.924389322269e+01
 4.10000000e+00 -5.127006414919e-01 -1.996621852922e+01 -9.693711978155e+00 +7.004732751644e+01 -9.693711978155e+00 +7.004732751643e+01 -5.110815884170e-01 -1.968915339488e+01
 4.20000000e+00 -5.363575217210e-01 -2.041565651929e+01 -9.507907472236e+00 +6.959456481642e+01 -9.507907472237e+00 +6.959456481641e+01 -5.347113874713e-01 -2.013202959110e+01
 4.30000000e+00 -5.604475637814e-01 -2.086267793717e+01 -9.327478749334e+00 +6.914420098579e+01 -9.327478749334e+00 +6.914420098579e+01 -5.587748103103e-01 -2.057249016188e+01
 4.40000000e+00 -5.849628860581e-01 -2.130725265519e+01 -9.152190916845e+00 +6.869626804837e+01 -9.152190916845e+00 +6.869626804837e+01 -5.832639396187e-01 -2.101050486696e+01
 4.50000000e+00 -6.098955639047e-01 -2.174935193425e+01 -8.981824340611e+00 +6.825079643100e+01 -8.981824340612e+00 +6.825079643100e+01 -6.081708166380e-01 -2.144604487378e+01
 4.60000000e+00 -6.352376366344e-01 -2.218894842185e+01 -8.816173307261e+00 +6.780781498989e+01 -8.816173307261e+00 +6.780781498989e+01 -6.334874482369e-01 -2.187908275367e+01
 4.70000000e+00 -6.609811144404e-01 -2.262601614810e+01 -8.655044830945e+00 +6.736735103601e+01 -8.655044830945e+00 +6.736735103601e+01 -6.592058138870e-01 -2.230959247602e+01
 4.80000000e+00 -6.871179852267e-01 -2.306053051964e+01 -8.498257586227e+00 +6.692943035964e+01 -8.498257586227e+00 +6.692943035964e+01 -6.853178725285e-01 -2.273754940041e+01
 4.90000000e+00 -7.136402213321e-01 -2.349246831146e+01 -8.345640951513e+00 +6.649407725454e+01 -8.345640951514e+00 +6.649407725454e+01 -7.118155693038e-01 -2.316293026680e+01
 5.00000000e+00 -7.405397861280e-01 -2.392180765691e+01 -8.197034149606e+00 +6.606131454193e+01 -8.197034149606e+00 +6.606131454192e+01 -7.386908421443e-01 -2.358571318382e+01
 5.10000000e+00 -7.678086404737e-01 -2.434852803571e+01 -8.052285473826e+00 +6.563116359441e+01 -8.052285473827e+00 +6.563116359441e+01 -7.659356281952e-01 -2.400587761533e+01
 5.20000000e+00 -7.954387490128e-01 -2.477261026033e+01 -7.911251589724e+00 +6.520364436021e+01 -7.911251589725e+00 +6.520364436021e+01 -7.935418700621e-01 -2.442340436534e+01
 5.30000000e+00 -8.234220862952e-01 -2.519403646060e+01 -7.773796903701e+00 +6.477877538757e+01 -7.773796903702e+00 +6.477877538757e+01 -8.215015218705e-01 -2.483827556130e+01
 5.40000000e+00 -8.517506427142e-01 -2.561279006675e+01 -7.639792991028e+00 +6.435657384972e+01 -7.639792991029e+00 +6.435657384972e+01 -8.498065551241e-01 -2.525047463607e+01
 5.50000000e+00 -8.804164302432e-01 -2.602885579110e+01 -7.509118076687e+00 +6.393705557024e+01 -7.509118076687e+00 +6.393705557023e+01 -8.784489643570e-01 -2.565998630841e+01
 5.60000000e+00 -9.094114879673e-01 -2.644221960825e+01 -7.381656563292e+00 +6.352023504897e+01 -7.381656563292e+00 +6.352023504897e+01 -9.074207725702e-01 -2.606679656238e+01
 5.70000000e+00 -9.387278873973e-01 -2.685286873422e+01 -7.257298601083e+00 +6.310612548852e+01 -7.257298601083e+00 +6.310612548852e+01 -9.367140364488e-01 -2.647089262562e+01
 5.80000000e+00 -9.683577375649e-01 -2.726079160432e+01 -7.135939695539e+00 +6.269473882120e+01 -7.135939695540e+00 +6.269473882120e+01 -9.663208513560e-01 -2.687226294658e+01
 5.90000000e+00 -9.982931898913e-01 -2.766597785017e+01 -7.017480348766e+00 +6.228608573656e+01 -7.017480348767e+00 +6.228608573656e+01 -9.962333561023e-01 -2.727089717096e+01
 6.00000000e+00 -1.028526442829e+00 -2.806841827577e+01 -6.901825731190e+00 +6.188017570938e+01 -6.901825731190e+00 +6.188017570938e+01 -1.026443737489e+00 -2.766678611730e+01
 6.10000000e+00 -1.059049746276e+00 -2.846810483276e+01 -6.788885380550e+00 +6.147701702801e+01 -6.788885380551e+00 +6.147701702801e+01 -1.056944234626e+00 -2.805992175196e+01
 6.20000000e+00 -1.089855405761e+00 -2.886503059517e+01 -6.678572925495e+00 +6.107661682316e+01 -6.678572925495e+00 +6.107661682316e+01 -1.087727143030e+00 -2.845029716349e+01
 6.30000000e+00 -1.120935786403e+00 -2.925918973342e+01 -6.570805831395e+00 +6.067898109695e+01 -6.570805831395e+00 +6.067898109695e+01 -1.118784818494e+00 -2.883790653651e+01
 6.40000000e+00 -1.152283316644e+00 -2.965057748800e+01 -6.465505166258e+00 +6.028411475222e+01 -6.465505166259e+00 +6.028411475222e+01 -1.150109680748e+00 -2.922274512519e+01
 6.50000000e+00 -1.183890491772e+00 -3.003919014268e+01 -6.362595384860e+00 +5.989202162196e+01 -6.362595384860e+00 +5.989202162196e+01 -1.181694216900e+00 -2.960480922642e+01
 6.60000000e+00 -1.215749877211e+00 -3.042502499746e+01 -6.262004129389e+00 +5.950270449893e+01 -6.262004129389e+00 +5.950270449893e+01 -1.213530984670e+00 -2.998409615268e+01
 6.70000000e+00 -1.247854111618e+00 -3.080808034128e+01 -6.163662045121e+00 +5.911616516528e+01 -6.163662045122e+00 +5.911616516528e+01 -1.245612615421e+00 -3.036060420477e+01
 6.80000000e+00 -1.280195909755e+00 -3.118835542457e+01 -6.067502609760e+00 +5.873240442218e+01 -6.067502609760e+00 +5.873240442218e+01 -1.277931816981e+00 -3.073433264440e+01
 6.90000000e+00 -1.312768065179e+00 -3.156585043174e+01 -5.973461975230e+00 +5.835142211937e+01 -5.973461975231e+00 +5.835142211937e+01 -1.310481376283e+00 -3.110528166666e+01
 7.00000000e+00 -1.345563452721e+00 -3.194056645359e+01 -5.881478820852e+00 +5.797321718465e+01 -5.881478820852e+00 +5.797321718465e+01 -1.343254161809e+00 -3.147345237258e+01
 7.10000000e+00 -1.378575030781e+00 -3.231250545978e+01 -5.791494216895e+00 +5.759778765314e+01 -5.791494216896e+00 +5.759778765314e+01 -1.376243125844e+00 -3.183884674160e+01
 7.20000000e+00 -1.411795843446e+00 -3.268167027137e+01 -5.703451497656e+00 +5.722513069638e+01 -5.703451497656e+00 +5.722513069638e+01 -1.409441306565e+00 -3.220146760423e+01
 7.30000000e+00 -1.445219022416e+00 -3.304806453344e+01 -5.617296143235e+00 +5.685524265120e+01 -5.617296143235e+00 +5.685524265120e+01 -1.442841829944e+00 -3.256131861473e+01
 7.40000000e+00 -1.478837788774e+00 -3.341169268791e+01 -5.532975669320e+00 +5.648811904829e+01 -5.532975669320e+00 +5.648811904829e+01 -1.476437911491e+00 -3.291840422405e+01
 7.50000000e+00 -1.512645454576e+00 -3.377255994653e+01 -5.450439524303e+00 +5.612375464046e+01 -5.450439524303e+00 +5.612375464046e+01 -1.510222857831e+00 -3.327272965287e+01
 7.60000000e+00 -1.546635424292e+00 -3.413067226415e+01 -5.369638993157e+00 +5.576214343058e+01 -5.369638993157e+00 +5.576214343058e+01 -1.544190068126e+00 -3.362430086492e+01
 7.70000000e+00 -1.580801196086e+00 -3.448603631216e+01 -5.290527107521e+00 +5.540327869913e+01 -5.290527107521e+00 +5.540327869913e+01 -1.578333035345e+00 -3.397312454060e+01
 7.80000000e+00 -1.615136362951e+00 -3.483865945230e+01 -5.213058561522e+00 +5.504715303142e+01 -5.213058561522e+00 +5.504715303142e+01 -1.612645347389e+00 -3.431920805073e+01
 7.90000000e+00 -1.649634613698e+00 -3.518854971077e+01 -5.137189632878e+00 +5.469375834431e+01 -5.137189632879e+00 +5.469375834431e+01 -1.647120688075e+00 -3.466255943082e+01
 8.00000000e+00 -1.684289733814e+00 -3.553571575269e+01 -5.062878108888e+00 +5.434308591261e+01 -5.062878108888e+00 +5.434308591261e+01 -1.681752837982e+00 -3.500318735553e+01
 8.10000000e+00 -1.719095606182e+00 -3.588016685687e+01 -4.990083216929e+00 +5.399512639494e+01 -4.990083216930e+00 +5.399512639494e+01 -1.716535675172e+00 -3.534110111349e+01
 8.20000000e+00 -1.754046211679e+00 -3.622191289103e+01 -4.918765559145e+00 +5.364986985923e+01 -4.918765559145e+00 +5.364986985923e+01 -1.751463175780e+00 -3.567631058261e+01
 8.30000000e+00 -1.789135629650e+00 -3.656096428738e+01 -4.848887050990e+00 +5.330730580763e+01 -4.848887050990e+00 +5.330730580763e+01 -1.786529414495e+00 -3.600882620565e+01
 8.40000000e+00 -1.824358038271e+00 -3.689733201865e+01 -4.780410863374e+00 +5.296742320111e+01 -4.780410863375e+00 +5.296742320110e+01 -1.821728564910e+00 -3.633865896629e+01
 8.50000000e+00 -1.859707714795e+00 -3.723102757451e+01 -4.713301368139e+00 +5.263021048335e+01 -4.713301368139e+00 +5.263021048335e+01 -1.857054899777e+00 -3.666582036559e+01
 8.60000000e+00 -1.895179035701e+00 -3.756206293847e+01 -4.647524086623e+00 +5.229565560439e+01 -4.647524086623e+00 +5.229565560439e+01 -1.892502791151e+00 -3.699032239887e+01
 8.70000000e+00 -1.930766476735e+00 -3.789045056520e+01 -4.583045641112e+00 +5.196374604352e+01 -4.583045641113e+00 +5.196374604352e+01 -1.928066710430e+00 -3.731217753308e+01
 8.80000000e+00 -1.966464612858e+00 -3.821620335835e+01 -4.519833708973e+00 +5.163446883187e+01 -4.519833708973e+00 +5.163446883187e+01 -1.963741228310e+00 -3.763139868463e+01
 8.90000000e+00 -2.002268118106e+00 -3.853933464880e+01 -4.457856979274e+00 +5.130781057436e+01 -4.457856979274e+00 +5.130781057436e+01 -1.999521014640e+00 -3.794799919763e+01
 9.00000000e+00 -2.038171765361e+00 -3.885985817345e+01 -4.397085111741e+00 +5.098375747118e+01 -4.397085111741e+00 +5.098375747118e+01 -2.035400838193e+00 -3.826199282266e+01
 9.10000000e+00 -2.074170426038e+00 -3.917778805441e+01 -4.337488697887e+00 +5.066229533875e+01 -4.337488697887e+00 +5.066229533875e+01 -2.071375566360e+00 -3.857339369602e+01
 9.20000000e+00 -2.110259069700e+00 -3.949313877878e+01 -4.279039224165e+00 +5.034340963018e+01 -4.279039224165e+00 +5.034340963018e+01 -2.107440164759e+00 -3.888221631941e+01
 9.30000000e+00 -2.146432763593e+00 -3.980592517880e+01 -4.221709037027e+00 +5.002708545513e+01 -4.221709037027e+00 +5.002708545513e+01 -2.143589696776e+00 -3.918847554018e+01
 9.40000000e+00 -2.182686672123e+00 -4.011616241265e+01 -4.165471309750e+00 +4.971330759926e+01 -4.165471309750e+00 +4.971330759926e+01 -2.179819323040e+00 -3.949218653203e+01
 9.50000000e+00 -2.219016056254e+00 -4.042386594556e+01 -4.110300010928e+00 +4.940206054310e+01 -4.110300010928e+00 +4.940206054310e+01 -2.216124300822e+00 -3.979336477617e+01
 9.60000000e+00 -2.255416272856e+00 -4.072905153159e+01 -4.056169874524e+00 +4.909332848039e+01 -4.056169874525e+00 +4.909332848039e+01 -2.252499983385e+00 -4.009202604305e+01
 9.70000000e+00 -2.291882773992e+00 -4.103173519580e+01 -4.003056371380e+00 +4.878709533596e+01 -4.003056371380e+00 +4.878709533596e+01 -2.288941819269e+00 -4.038818637452e+01
 9.80000000e+00 -2.328411106152e+00 -4.133193321693e+01 -3.950935682098e+00 +4.848334478303e+01 -3.950935682098e+00 +4.848334478303e+01 -2.325445351526e+00 -4.068186206653e+01
 9.90000000e+00 -2.364996909435e+00 -4.162966211062e+01 -3.899784671211e+00 +4.818206026011e+01 -3.899784671211e+00 +4.818206026011e+01 -2.362006216905e+00 -4.097306965227e+01
 1.00000000e+01 -2.401635916689e+00 -4.192493861306e+01 -3.849580862569e+00 +4.788322498725e+01 -3.849580862569e+00 +4.788322498725e+01 -2.398620144988e+00 -4.126182588587e+01
 1.01000000e+01 -2.438323952605e+00 -4.221777966516e+01 -3.800302415854e+00 +4.758682198194e+01 -3.800302415854e+00 +4.758682198194e+01 -2.435282957287e+00 -4.154814772648e+01
 1.02000000e+01 -2.475056932771e+00 -4.250820239719e+01 -3.751928104178e+00 +4.729283407443e+01 -3.751928104179e+00 +4.729283407443e+01 -2.471990566294e+00 -4.183205232298e+01
 1.03000000e+01 -2.511830862693e+00 -4.279622411390e+01 -3.704437292692e+00 +4.700124392258e+01 -3.704437292692e+00 +4.700124392258e+01 -2.508738974505e+00 -4.211355699900e+01
 1.04000000e+01 -2.548641836776e+00 -4.308186228011e+01 -3.657809918134e+00 +4.671203402625e+01 -3.657809918134e+00 +4.671203402625e+01 -2.545524273401e+00 -4.239267923855e+01
 1.05000000e+01 -2.585486037282e+00 -4.336513450678e+01 -3.612026469300e+00 +4.642518674122e+01 -3.612026469300e+00 +4.642518674122e+01 -2.582342642402e+00 -4.266943667203e+01
 1.06000000e+01 -2.622359733253e+00 -4.364605853750e+01 -3.567067968340e+00 +4.614068429262e+01 -3.567067968340e+00 +4.614068429262e+01 -2.619190347790e+00 -4.294384706275e+01
 1.07000000e+01 -2.659259279413e+00 -4.392465223551e+01 -3.522915952876e+00 +4.585850878790e+01 -3.522915952876e+00 +4.585850878790e+01 -2.656063741615e+00 -4.321592829385e+01
 1.08000000e+01 -2.696181115049e+00 -4.420093357106e+01 -3.479552458865e+00 +4.557864222939e+01 -3.479552458865e+00 +4.557864222939e+01 -2.692959260567e+00 -4.348569835575e+01
 1.09000000e+01 -2.733121762863e+00 -4.447492060930e+01 -3.436960004192e+00 +4.530106652640e+01 -3.436960004192e+00 +4.530106652640e+01 -2.729873424835e+00 -4.375317533395e+01
 1.10000000e+01 -2.770077827818e+00 -4.474663149856e+01 -3.395121572932e+00 +4.502576350685e+01 -3.395121572932e+00 +4.502576350685e+01 -2.766802836945e+00 -4.401837739732e+01
 1.11000000e+01 -2.807045995959e+00 -4.501608445906e+01 -3.354020600263e+00 +4.475271492851e+01 -3.354020600263e+00 +4.475271492851e+01 -2.803744180585e+00 -4.428132278678e+01
 1.12000000e+01 -2.844023033225e+00 -4.528329777204e+01 -3.313640957991e+00 +4.448190248984e+01 -3.313640957991e+00 +4.448190248984e+01 -2.840694219414e+00 -4.454202980443e+01
 1.13000000e+01 -2.881005784248e+00 -4.554828976930e+01 -3.273966940648e+00 +4.421330784038e+01 -3.273966940648e+00 +4.421330784038e+01 -2.877649795858e+00 -4.480051680307e+01
 1.14000000e+01 -2.917991171143e+00 -4.581107882313e+01 -3.234983252150e+00 +4.394691259076e+01 -3.234983252150e+00 +4.394691259076e+01 -2.914607829902e+00 -4.505680217608e+01
 1.15000000e+01 -2.954976192291e+00 -4.607168333661e+01 -3.196674992967e+00 +4.368269832234e+01 -3.196674992967e+00 +4.368269832234e+01 -2.951565317868e+00 -4.531090434782e+01
 1.16000000e+01 -2.991957921111e+00 -4.633012173437e+01 -3.159027647798e+00 +4.342064659640e+01 -3.159027647798e+00 +4.342064659640e+01 -2.988519331190e+00 -4.556284176420e+01
 1.17000000e+01 -3.028933504839e+00 -4.658641245361e+01 -3.122027073716e+00 +4.316073896305e+01 -3.122027073716e+00 +4.316073896305e+01 -3.025467015187e+00 -4.581263288386e+01
 1.18000000e+01 -3.065900163289e+00 -4.684057393559e+01 -3.085659488765e+00 +4.290295696972e+01 -3.085659488765e+00 +4.290295696972e+01 -3.062405587826e+00 -4.606029616953e+01
 1.19000000e+01 -3.102855187628e+00 -4.709262461741e+01 -3.049911460980e+00 +4.264728216927e+01 -3.049911460980e+00 +4.264728216927e+01 -3.099332338492e+00 -4.630585007984e+01
 1.20000000e+01 -3.139795939137e+00 -4.734258292413e+01 -3.014769897822e+00 +4.239369612784e+01 -3.014769897822e+00 +4.239369612784e+01 -3.136244626752e+00 -4.654931306149e+01
 1.21000000e+01 -3.176719847986e+00 -4.759046726132e+01 -2.980222035996e+00 +4.214218043228e+01 -2.980222035996e+00 +4.214218043228e+01 -3.173139881126e+00 -4.679070354163e+01
 1.22000000e+01 -3.213624412001e+00 -4.783629600781e+01 -2.946255431649e+00 +4.189271669732e+01 -2.946255431649e+00 +4.189271669732e+01 -3.210015597851e+00 -4.703003992077e+01
 1.23000000e+01 -3.250507195444e+00 -4.808008750882e+01 -2.912857950909e+00 +4.164528657234e+01 -2.912857950909e+00 +4.164528657234e+01 -3.246869339663e+00 -4.726734056583e+01
 1.24000000e+01 -3.287365827789e+00 -4.832186006948e+01 -2.880017760777e+00 +4.139987174790e+01 -2.880017760777e+00 +4.139987174790e+01 -3.283698734569e+00 -4.750262380360e+01
 1.25000000e+01 -3.324198002513e+00 -4.856163194848e+01 -2.847723320335e+00 +4.115645396195e+01 -2.847723320335e+00 +4.115645396195e+01 -3.320501474637e+00 -4.773590791449e+01
 1.26000000e+01 -3.361001475888e+00 -4.879942135216e+01 -2.815963372260e+00 +4.091501500576e+01 -2.815963372260e+00 +4.091501500576e+01 -3.357275314786e+00 -4.796721112651e+01
 1.27000000e+01 -3.397774065778e+00 -4.903524642883e+01 -2.784726934641e+00 +4.067553672950e+01 -2.784726934641e+00 +4.067553672950e+01 -3.394018071585e+00 -4.819655160966e+01
 1.28000000e+01 -3.434513650454e+00 -4.926912526339e+01 -2.754003293073e+00 +4.043800104765e+01 -2.754003293073e+00 +4.043800104765e+01 -3.430727622061e+00 -4.842394747047e+01
 1.29000000e+01 -3.471218167414e+00 -4.950107587213e+01 -2.723781993027e+00 +4.020238994404e+01 -2.723781993027e+00 +4.020238994404e+01 -3.467401902520e+00 -4.864941674688e+01
 1.30000000e+01 -3.507885612203e+00 -4.973111619796e+01 -2.694052832475e+00 +3.996868547672e+01 -2.694052832475e+00 +3.996868547672e+01 -3.504038907370e+00 -4.887297740336e+01
 1.31000000e+01 -3.544514037265e+00 -4.995926410569e+01 -2.664805854766e+00 +3.973686978251e+01 -2.664805854766e+00 +3.973686978251e+01 -3.540636687962e+00 -4.909464732632e+01
 1.32000000e+01 -3.581101550785e+00 -5.018553737775e+01 -2.636031341740e+00 +3.950692508135e+01 -2.636031341740e+00 +3.950692508135e+01 -3.577193351439e+00 -4.931444431966e+01
 1.33000000e+01 -3.617646315556e+00 -5.040995370998e+01 -2.607719807070e+00 +3.927883368042e+01 -2.607719807070e+00 +3.927883368042e+01 -3.613707059599e+00 -4.953238610069e+01
 1.34000000e+01 -3.654146547853e+00 -5.063253070776e+01 -2.579861989824e+00 +3.905257797795e+01 -2.579861989824e+00 +3.905257797795e+01 -3.650176027767e+00 -4.974849029618e+01
 1.35000000e+01 -3.690600516323e+00 -5.085328588229e+01 -2.552448848236e+00 +3.882814046697e+01 -2.552448848236e+00 +3.882814046697e+01 -3.686598523683e+00 -4.996277443868e+01
 1.36000000e+01 -3.727006540884e+00 -5.107223664714e+01 -2.525471553684e+00 +3.860550373867e+01 -2.525471553684e+00 +3.860550373867e+01 -3.722972866400e+00 -5.017525596305e+01
 1.37000000e+01 -3.763362991641e+00 -5.128940031499e+01 -2.498921484854e+00 +3.838465048571e+01 -2.498921484854e+00 +3.838465048571e+01 -3.759297425203e+00 -5.038595220315e+01
 1.38000000e+01 -3.799668287816e+00 -5.150479409452e+01 -2.472790222101e+00 +3.816556350519e+01 -2.472790222101e+00 +3.816556350519e+01 -3.795570618530e+00 -5.059488038882e+01
 1.39000000e+01 -3.835920896691e+00 -5.171843508754e+01 -2.447069541978e+00 +3.794822570156e+01 -2.447069541979e+00 +3.794822570156e+01 -3.831790912919e+00 -5.080205764293e+01
 1.40000000e+01 -3.872119332563e+00 -5.193034028633e+01 -2.421751411951e+00 +3.773262008929e+01 -2.421751411951e+00 +3.773262008929e+01 -3.867956821962e+00 -5.100750097874e+01
 1.41000000e+01 -3.908262155720e+00 -5.214052657107e+01 -2.396827985266e+00 +3.751872979532e+01 -2.396827985266e+00 +3.751872979532e+01 -3.904066905278e+00 -5.121122729734e+01
 1.42000000e+01 -3.944347971428e+00 -5.234901070754e+01 -2.372291595986e+00 +3.730653806139e+01 -2.372291595986e+00 +3.730653806139e+01 -3.940119767498e+00 -5.141325338533e+01
 1.43000000e+01 -3.980375428930e+00 -5.255580934492e+01 -2.348134754179e+00 +3.709602824626e+01 -2.348134754179e+00 +3.709602824626e+01 -3.976114057265e+00 -5.161359591262e+01
 1.44000000e+01 -4.016343220469e+00 -5.276093901376e+01 -2.324350141255e+00 +3.688718382762e+01 -2.324350141255e+00 +3.688718382762e+01 -4.012048466255e+00 -5.181227143042e+01
 1.45000000e+01 -4.052250080316e+00 -5.296441612413e+01 -2.300930605440e+00 +3.667998840400e+01 -2.300930605440e+00 +3.667998840400e+01 -4.047921728203e+00 -5.200929636935e+01
 1.46000000e+01 -4.088094783822e+00 -5.316625696389e+01 -2.277869157399e+00 +3.647442569644e+01 -2.277869157399e+00 +3.647442569644e+01 -4.083732617957e+00 -5.220468703774e+01
 1.47000000e+01 -4.123876146483e+00 -5.336647769712e+01 -2.255158965981e+00 +3.627047955008e+01 -2.255158965981e+00 +3.627047955008e+01 -4.119479950536e+00 -5.239845962004e+01
 1.48000000e+01 -4.159593023013e+00 -5.356509436264e+01 -2.232793354096e+00 +3.606813393557e+01 -2.232793354096e+00 +3.606813393557e+01 -4.155162580210e+00 -5.259063017537e+01
 1.49000000e+01 -4.195244306448e+00 -5.376212287275e+01 -2.210765794721e+00 +3.586737295035e+01 -2.210765794721e+00 +3.586737295035e+01 -4.190779399595e+00 -5.278121463619e+01
 1.50000000e+01 -4.230828927250e+00 -5.395757901201e+01 -2.189069907012e+00 +3.566818081988e+01 -2.189069907012e+00 +3.566818081988e+01 -4.226329338762e+00 -5.297022880716e+01
 1.51000000e+01 -4.266345852436e+00 -5.415147843617e+01 -2.167699452547e+00 +3.547054189863e+01 -2.167699452547e+00 +3.547054189863e+01 -4.261811364363e+00 -5.315768836402e+01
 1.52000000e+01 -4.301794084720e+00 -5.434383667121e+01 -2.146648331664e+00 +3.527444067105e+01 -2.146648331664e+00 +3.527444067105e+01 -4.297224478771e+00 -5.334360885266e+01
 1.53000000e+01 -4.337172661669e+00 -5.453466911255e+01 -2.125910579921e+00 +3.507986175242e+01 -2.125910579921e+00 +3.507986175242e+01 -4.332567719236e+00 -5.352800568827e+01
 1.54000000e+01 -4.372480654878e+00 -5.472399102422e+01 -2.105480364649e+00 +3.488678988954e+01 -2.105480364649e+00 +3.488678988954e+01 -4.367840157058e+00 -5.371089415459e+01
 1.55000000e+01 -4.407717169155e+00 -5.491181753832e+01 -2.085351981609e+00 +3.469520996137e+01 -2.085351981609e+00 +3.469520996137e+01 -4.403040896775e+00 -5.389228940332e+01
 1.56000000e+01 -4.442881341724e+00 -5.509816365440e+01 -2.065519851744e+00 +3.450510697959e+01 -2.065519851744e+00 +3.450510697959e+01 -4.438169075361e+00 -5.407220645351e+01
 1.57000000e+01 -4.477972341448e+00 -5.528304423906e+01 -2.045978518030e+00 +3.431646608898e+01 -2.045978518030e+00 +3.431646608898e+01 -4.473223861448e+00 -5.425066019115e+01
 1.58000000e+01 -4.512989368056e+00 -5.546647402558e+01 -2.026722642409e+00 +3.412927256783e+01 -2.026722642409e+00 +3.412927256783e+01 -4.508204454558e+00 -5.442766536882e+01
 1.59000000e+01 -4.547931651396e+00 -5.564846761362e+01 -2.007747002814e+00 +3.394351182817e+01 -2.007747002814e+00 +3.394351182817e+01 -4.543110084347e+00 -5.460323660539e+01
 1.60000000e+01 -4.582798450698e+00 -5.582903946908e+01 -1.989046490281e+00 +3.375916941597e+01 -1.989046490282e+00 +3.375916941597e+01 -4.577940009871e+00 -5.477738838584e+01
 1.61000000e+01 -4.617589053845e+00 -5.600820392390e+01 -1.970616106137e+00 +3.357623101125e+01 -1.970616106137e+00 +3.357623101125e+01 -4.612693518862e+00 -5.495013506114e+01
 1.62000000e+01 -4.652302776675e+00 -5.618597517610e+01 -1.952450959267e+00 +3.339468242813e+01 -1.952450959267e+00 +3.339468242813e+01 -4.647369927018e+00 -5.512149084819e+01
 1.63000000e+01 -4.686938962279e+00 -5.636236728976e+01 -1.934546263468e+00 +3.321450961479e+01 -1.934546263468e+00 +3.321450961479e+01 -4.681968577309e+00 -5.529146982987e+01
 1.64000000e+01 -4.721496980326e+00 -5.653739419509e+01 -1.916897334862e+00 +3.303569865336e+01 -1.916897334862e+00 +3.303569865336e+01 -4.716488839299e+00 -5.546008595512e+01
 1.65000000e+01 -4.755976226397e+00 -5.671106968862e+01 -1.899499589392e+00 +3.285823575980e+01 -1.899499589393e+00 +3.285823575980e+01 -4.750930108476e+00 -5.562735303907e+01
 1.66000000e+01 -4.790376121330e+00 -5.688340743343e+01 -1.882348540384e+00 +3.268210728365e+01 -1.882348540384e+00 +3.268210728365e+01 -4.785291805604e+00 -5.579328476330e+01
 1.67000000e+01 -4.824696110588e+00 -5.705442095936e+01 -1.865439796171e+00 +3.250729970775e+01 -1.865439796171e+00 +3.250729970775e+01 -4.819573376080e+00 -5.595789467608e+01
 1.68000000e+01 -4.858935663628e+00 -5.722412366338e+01 -1.848769057795e+00 +3.233379964795e+01 -1.848769057795e+00 +3.233379964795e+01 -4.853774289313e+00 -5.612119619268e+01
 1.69000000e+01 -4.893094273293e+00 -5.739252880995e+01 -1.832332116757e+00 +3.216159385271e+01 -1.832332116757e+00 +3.216159385271e+01 -4.887894038108e+00 -5.628320259581e+01
 1.70000000e+01 -4.927171455214e+00 -5.755964953145e+01 -1.816124852841e+00 +3.199066920265e+01 -1.816124852841e+00 +3.199066920265e+01 -4.921932138071e+00 -5.644392703596e+01
 1.71000000e+01 -4.961166747221e+00 -5.772549882864e+01 -1.800143231985e+00 +3.182101271011e+01 -1.800143231985e+00 +3.182101271011e+01 -4.955888127018e+00 -5.660338253195e+01
 1.72000000e+01 -4.995079708777e+00 -5.789008957118e+01 -1.784383304225e+00 +3.165261151864e+01 -1.784383304225e+00 +3.165261151864e+01 -4.989761564407e+00 -5.676158197138e+01
 1.73000000e+01 -5.028909920408e+00 -5.805343449821e+01 -1.768841201679e+00 +3.148545290241e+01 -1.768841201679e+00 +3.148545290241e+01 -5.023552030775e+00 -5.691853811123e+01
 1.74000000e+01 -5.062656983166e+00 -5.821554621888e+01 -1.753513136594e+00 +3.131952426563e+01 -1.753513136594e+00 +3.131952426563e+01 -5.057259127188e+00 -5.707426357844e+01
 1.75000000e+01 -5.096320518084e+00 -5.837643721304e+01 -1.738395399444e+00 +3.115481314194e+01 -1.738395399444e+00 +3.115481314194e+01 -5.090882474706e+00 -5.722877087052e+01
 1.76000000e+01 -5.129900165656e+00 -5.853611983189e+01 -1.723484357078e+00 +3.099130719371e+01 -1.723484357078e+00 +3.099130719371e+01 -5.124421713860e+00 -5.738207235625e+01
 1.77000000e+01 -5.163395585325e+00 -5.869460629864e+01 -1.708776450918e+00 +3.082899421136e+01 -1.708776450919e+00 +3.082899421136e+01 -5.157876504137e+00 -5.753418027636e+01
 1.78000000e+01 -5.196806454981e+00 -5.885190870929e+01 -1.694268195203e+00 +3.066786211265e+01 -1.694268195203e+00 +3.066786211265e+01 -5.191246523478e+00 -5.768510674426e+01
 1.79000000e+01 -5.230132470472e+00 -5.900803903335e+01 -1.679956175281e+00 +3.050789894189e+01 -1.679956175281e+00 +3.050789894189e+01 -5.224531467791e+00 -5.783486374677e+01
 1.80000000e+01 -5.263373345125e+00 -5.916300911463e+01 -1.665837045947e+00 +3.034909286918e+01 -1.665837045947e+00 +3.034909286918e+01 -5.257731050472e+00 -5.798346314497e+01
 1.81000000e+01 -5.296528809279e+00 -5.931683067205e+01 -1.651907529822e+00 +3.019143218960e+01 -1.651907529822e+00 +3.019143218960e+01 -5.290845001932e+00 -5.813091667493e+01
 1.82000000e+01 -5.329598609827e+00 -5.946951530047e+01 -1.638164415777e+00 +3.003490532237e+01 -1.638164415777e+00 +3.003490532237e+01 -5.323873069145e+00 -5.827723594859e+01
 1.83000000e+01 -5.362582509772e+00 -5.962107447154e+01 -1.624604557397e+00 +2.987950081001e+01 -1.624604557397e+00 +2.987950081001e+01 -5.356815015202e+00 -5.842243245460e+01
 1.84000000e+01 -5.395480287788e+00 -5.977151953457e+01 -1.611224871483e+00 +2.972520731748e+01 -1.611224871483e+00 +2.972520731748e+01 -5.389670618869e+00 -5.856651755919e+01
 1.85000000e+01 -5.428291737797e+00 -5.992086171741e+01 -1.598022336598e+00 +2.957201363126e+01 -1.598022336598e+00 +2.957201363126e+01 -5.422439674165e+00 -5.870950250705e+01
 1.86000000e+01 -5.461016668551e+00 -6.006911212738e+01 -1.584993991646e+00 +2.941990865846e+01 -1.584993991646e+00 +2.941990865846e+01 -5.455121989945e+00 -5.885139842227e+01
 1.87000000e+01 -5.493654903224e+00 -6.021628175218e+01 -1.572136934489e+00 +2.926888142590e+01 -1.572136934489e+00 +2.926888142590e+01 -5.487717389493e+00 -5.899221630924e+01
 1.88000000e+01 -5.526206279021e+00 -6.036238146083e+01 -1.559448320598e+00 +2.911892107918e+01 -1.559448320598e+00 +2.911892107918e+01 -5.520225710125e+00 -5.913196705357e+01
 1.89000000e+01 -5.558670646785e+00 -6.050742200459e+01 -1.546925361746e+00 +2.897001688171e+01 -1.546925361746e+00 +2.897001688171e+01 -5.552646802799e+00 -5.927066142311e+01
 1.90000000e+01 -5.591047870620e+00 -6.065141401800e+01 -1.534565324722e+00 +2.882215821375e+01 -1.534565324722e+00 +2.882215821375e+01 -5.584980531742e+00 -5.940831006881e+01
 1.91000000e+01 -5.623337827523e+00 -6.079436801976e+01 -1.522365530089e+00 +2.867533457147e+01 -1.522365530089e+00 +2.867533457147e+01 -5.617226774074e+00 -5.954492352581e+01
 1.92000000e+01 -5.655540407024e+00 -6.093629441379e+01 -1.510323350966e+00 +2.852953556593e+01 -1.510323350966e+00 +2.852953556593e+01 -5.649385419452e+00 -5.968051221433e+01
 1.93000000e+01 -5.687655510832e+00 -6.107720349016e+01 -1.498436211847e+00 +2.838475092209e+01 -1.498436211847e+00 +2.838475092209e+01 -5.681456369715e+00 -5.981508644072e+01
 1.94000000e+01 -5.719683052491e+00 -6.121710542615e+01 -1.486701587444e+00 +2.824097047784e+01 -1.486701587445e+00 +2.824097047784e+01 -5.713439538542e+00 -5.994865639844e+01
 1.95000000e+01 -5.751622957048e+00 -6.135601028720e+01 -1.475117001566e+00 +2.809818418296e+01 -1.475117001566e+00 +2.809818418296e+01 -5.745334851115e+00 -6.008123216906e+01
 1.96000000e+01 -5.783475160724e+00 -6.149392802798e+01 -1.463680026015e+00 +2.795638209815e+01 -1.463680026015e+00 +2.795638209815e+01 -5.777142243793e+00 -6.021282372330e+01
 1.97000000e+01 -5.815239610594e+00 -6.163086849336e+01 -1.452388279523e+00 +2.781555439396e+01 -1.452388279523e+00 +2.781555439396e+01 -5.808861663792e+00 -6.034344092203e+01
 1.98000000e+01 -5.846916264277e+00 -6.176684141945e+01 -1.441239426710e+00 +2.767569134980e+01 -1.441239426710e+00 +2.767569134980e+01 -5.840493068873e+00 -6.047309351729e+01
 1.99000000e+01 -5.878505089633e+00 -6.190185643462e+01 -1.430231177060e+00 +2.753678335293e+01 -1.430231177060e+00 +2.753678335293e+01 -5.872036427039e+00 -6.060179115334e+01
 2.00000000e+01 -5.910006064461e+00 -6.203592306056e+01 -1.419361283937e+00 +2.739882089738e+01 -1.419361283937e+00 +2.739882089738e+01 -5.903491716237e+00 -6.072954336766e+01
