#  GHZ S DB R 50
 1.00000000e-02 -2.762049126728e-07 -9.580073703768e-03 -7.649695399571e+01 +8.999125670944e+01 -7.649695399570e+01 +8.999125670730e+01 -2.577307151247e-07 -9.594322465934e-03
 2.00000000e-02 -6.357339518857e-07 -1.916014295758e-02 -7.047635251293e+01 +8.998220163593e+01 -7.047635251292e+01 +8.998220163486e+01 -6.125339912710e-07 -1.918864731952e-02
 1.00000000e-01 -1.214497961598e-05 -9.580022722152e-02 -5.649692258859e+01 +8.991049668417e+01 -5.649692258859e+01 +8.991049668405e+01 -1.197635024009e-05 -9.594278917312e-02
 2.00000000e-01 -4.808888786505e-05 -1.915973875719e-01 -5.047622721154e+01 +8.982089340424e+01 -5.047622721154e+01 +8.982089340418e+01 -4.746523160821e-05 -1.918826738596e-01
 3.00000000e-01 -1.078989268408e-04 -2.873884110488e-01 -4.695424604716e+01 +8.973115303703e+01 -4.695424604716e+01 +8.973115303697e+01 -1.065130204579e-04 -2.878167837974e-01
 4.00000000e-01 -1.914155284691e-04 -3.831703730362e-01 -4.445525964566e+01 +8.964120912149e+01 -4.445525964566e+01 +8.964120912145e+01 -1.889654950414e-04 -3.837424355612e-01
 5.00000000e-01 -2.984177075356e-04 -4.789406298194e-01 -4.251679829109e+01 +8.955100532143e+01 -4.251679829109e+01 +8.955100532140e+01 -2.946170263897e-04 -4.796572186352e-01
 6.00000000e-01 -4.286399998642e-04 -5.746969017446e-01 -4.093287048704e+01 +8.946049586200e+01 -4.093287048704e+01 +8.946049586198e+01 -4.232249979029e-04 -5.755590535210e-01
 7.00000000e-01 -5.817902721889e-04 -6.704373039759e-01 -3.959359846939e+01 +8.936964745788e+01 -3.959359846939e+01 +8.936964745785e+01 -5.745247127192e-04 -6.714462123497e-01
 8.00000000e-01 -7.575656125441e-04 -7.661603381202e-01 -3.843339861795e+01 +8.927843935137e+01 -3.843339861795e+01 +8.927843935135e+01 -7.482428299179e-04 -7.673173091491e-01
 9.00000000e-01 -9.556650733508e-04 -8.618648580550e-01 -3.740997095368e+01 +8.918686201793e+01 -3.740997095368e+01 +8.918686201791e+01 -9.441082371525e-04 -8.631712688555e-01
 1.00000000e+00 -1.175798927164e-03 -9.575500216792e-01 -3.649443540757e+01 +8.909491522862e+01 -3.649443540757e+01 +8.909491522860e+01 -1.161859958223e-03 -9.590072844511e-01
 1.10000000e+00 -1.417694654676e-03 -1.053215237774e+00 -3.566619444439e+01 +8.900260594003e+01 -3.566619444439e+01 +8.900260594002e+01 -1.401252231593e-03 -1.054824770110e+00
 1.20000000e+00 -1.681100198746e-03 -1.148860114419e+00 -3.491004056706e+01 +8.890994629750e+01 -3.491004056706e+01 +8.890994629748e+01 -1.662057213933e-03 -1.150623316071e+00
 1.30000000e+00 -1.965785139277e-03 -1.244484412890e+00 -3.421442564000e+01 +8.881695190636e+01 -3.421442564000e+01 +8.881695190634e+01 -1.944065897860e-03 -1.246402648648e+00
 1.40000000e+00 -2.271540434003e-03 -1.340088008866e+00 -3.357037346957e+01 +8.872364043412e+01 -3.357037346957e+01 +8.872364043411e+01 -2.247087823019e-03 -1.342162596897e+00
 1.50000000e+00 -2.598177277416e-03 -1.435670861304e+00 -3.297076850479e+01 +8.863003054483e+01 -3.297076850479e+01 +8.863003054481e+01 -2.570950074152e-03 -1.437903066090e+00
 1.60000000e+00 -2.945525504892e-03 -1.531232988374e+00 -3.240987460749e+01 +8.853614113117e+01 -3.240987460749e+01 +8.853614113116e+01 -2.915495935027e-03 -1.533624017318e+00
 1.70000000e+00 -3.313431840712e-03 -1.626774449387e+00 -3.188299999908e+01 +8.844199079337e+01 -3.188299999908e+01 +8.844199079336e+01 -3.280583449030e-03 -1.629325452143e+00
 1.80000000e+00 -3.701758180166e-03 -1.722295331502e+00 -3.138625814195e+01 +8.834759750966e+01 -3.138625814195e+01 +8.834759750965e+01 -3.666084033902e-03 -1.725007401179e+00
 1.90000000e+00 -4.110380009966e-03 -1.817795740060e+00 -3.091639337139e+01 +8.825297844798e+01 -3.091639337140e+01 +8.825297844797e+01 -4.071881226359e-03 -1.820669915566e+00
 2.00000000e+00 -4.539185012193e-03 -1.913275791540e+00 -3.047065131384e+01 +8.815814987603e+01 -3.047065131384e+01 +8.815814987602e+01 -4.497869577490e-03 -1.916313060481e+00
 2.10000000e+00 -4.988071858268e-03 -2.008735608362e+00 -3.004668095854e+01 +8.806312713627e+01 -3.004668095854e+01 +8.806312713626e+01 -4.943953695441e-03 -2.011936910070e+00
 2.20000000e+00 -5.456949177255e-03 -2.104175314939e+00 -2.964245953407e+01 +8.796792466079e+01 -2.964245953407e+01 +8.796792466078e+01 -5.410047413538e-03 -2.107541543332e+00
 2.30000000e+00 -5.945734672589e-03 -2.199595034551e+00 -2.925623409908e+01 +8.787255600845e+01 -2.925623409908e+01 +8.787255600844e+01 -5.896073059123e-03 -2.203127040669e+00
 2.40000000e+00 -6.454354358445e-03 -2.294994886775e+00 -2.888647557373e+01 +8.777703391268e+01 -2.888647557373e+01 +8.777703391267e+01 -6.401960799846e-03 -2.298693480918e+00
 2.50000000e+00 -6.982741888852e-03 -2.390374985282e+00 -2.853184216164e+01 +8.768137033234e+01 -2.853184216164e+01 +8.768137033234e+01 -6.927648047104e-03 -2.394240938750e+00
 2.60000000e+00 -7.530837956557e-03 -2.485735435902e+00 -2.819114995034e+01 +8.758557650161e+01 -2.819114995034e+01 +8.758557650160e+01 -7.473078901316e-03 -2.489769482388e+00
 2.70000000e+00 -8.098589744129e-03 -2.581076334914e+00 -2.786334906327e+01 +8.748966297655e+01 -2.786334906327e+01 +8.748966297654e+01 -8.038203630212e-03 -2.585279171618e+00
 2.80000000e+00 -8.685950413506e-03 -2.676397767520e+00 -2.754750415133e+01 +8.739363967778e+01 -2.754750415133e+01 +8.739363967778e+01 -8.622978172262e-03 -2.680770056058e+00
 2.90000000e+00 -9.292878625474e-03 -2.771699806519e+00 -2.724277830943e+01 +8.729751592899e+01 -2.724277830943e+01 +8.729751592898e+01 -9.227363662802e-03 -2.776242173712e+00
 3.00000000e+00 -9.919338083491e-03 -2.866982511157e+00 -2.694841972116e+01 +8.720130049179e+01 -2.694841972116e+01 +8.720130049179e+01 -9.851325980521e-03 -2.871695549758e+00
 3.10000000e+00 -1.056529709826e-02 -2.962245926175e+00 -2.666375049445e+01 +8.710500159755e+01 -2.666375049445e+01 +8.710500159754e+01 -1.049483531580e-02 -2.967130195592e+00
 3.20000000e+00 -1.123072817235e-02 -3.057490081043e+00 -2.638815727062e+01 +8.700862697651e+01 -2.638815727062e+01 +8.700862697651e+01 -1.115786575938e-02 -3.062546108092e+00
 3.30000000e+00 -1.191560760399e-02 -3.152714989373e+00 -2.612108327925e+01 +8.691218388504e+01 -2.612108327925e+01 +8.691218388503e+01 -1.184039491355e-02 -3.157943269089e+00
 3.40000000e+00 -1.261991511067e-02 -3.247920648514e+00 -2.586202157975e+01 +8.681567913110e+01 -2.586202157975e+01 +8.681567913110e+01 -1.254240352574e-02 -3.253321645033e+00
 3.50000000e+00 -1.334363347288e-02 -3.343107039307e+00 -2.561050928307e+01 +8.671911909854e+01 -2.561050928307e+01 +8.671911909854e+01 -1.326387514547e-02 -3.348681186823e+00
 3.60000000e+00 -1.408674819886e-02 -3.438274125987e+00 -2.536612258777e+01 +8.662250977022e+01 -2.536612258777e+01 +8.662250977022e+01 -1.400479580424e-02 -3.444021829777e+00
 3.70000000e+00 -1.484924721020e-02 -3.533421856224e+00 -2.512847249654e+01 +8.652585675025e+01 -2.512847249654e+01 +8.652585675025e+01 -1.476515371847e-02 -3.539343493742e+00
 3.80000000e+00 -1.563112054901e-02 -3.628550161280e+00 -2.489720110415e+01 +8.642916528540e+01 -2.489720110415e+01 +8.642916528540e+01 -1.554493901540e-02 -3.634646083293e+00
 3.90000000e+00 -1.643236010618e-02 -3.723658956260e+00 -2.467197836775e+01 +8.633244028568e+01 -2.467197836776e+01 +8.633244028568e+01 -1.634414348040e-02 -3.729929488030e+00
 4.00000000e+00 -1.725295937047e-02 -3.818748140460e+00 -2.445249928616e+01 +8.623568634422e+01 -2.445249928616e+01 +8.623568634422e+01 -1.716276032595e-02 -3.825193582946e+00
 4.10000000e+00 -1.809291319794e-02 -3.913817597773e+00 -2.423848142752e+01 +8.613890775633e+01 -2.423848142752e+01 +8.613890775633e+01 -1.800078398002e-02 -3.920438228847e+00
 4.20000000e+00 -1.895221760101e-02 -4.008867197159e+00 -2.402966275494e+01 +8.604210853779e+01 -2.402966275494e+01 +8.604210853779e+01 -1.885820989407e-02 -4.015663272818e+00
 4.30000000e+00 -1.983086955588e-02 -4.103896793151e+00 -2.382579970798e+01 +8.594529244237e+01 -2.382579970798e+01 +8.594529244237e+01 -1.973503436814e-02 -4.110868548721e+00
 4.40000000e+00 -2.072886682793e-02 -4.198906226402e+00 -2.362666550470e+01 +8.584846297859e+01 -2.362666550470e+01 +8.584846297858e+01 -2.063125439291e-02 -4.206053877716e+00
 4.50000000e+00 -2.164620781345e-02 -4.293895324245e+00 -2.343204863446e+01 +8.575162342556e+01 -2.343204863446e+01 +8.575162342555e+01 -2.154686750728e-02 -4.301219068792e+00
 4.60000000e+00 -2.258289139697e-02 -4.388863901274e+00 -2.324175151639e+01 +8.565477684817e+01 -2.324175151639e+01 +8.565477684817e+01 -2.248187166955e-02 -4.396363919317e+00
 4.70000000e+00 -2.353891682298e-02 -4.483811759926e+00 -2.305558930210e+01 +8.555792611137e+01 -2.305558930210e+01 +8.555792611137e+01 -2.343626514241e-02 -4.491488215575e+00
 4.80000000e+00 -2.451428358092e-02 -4.578738691066e+00 -2.287338880432e+01 +8.546107389371e+01 -2.287338880432e+01 +8.546107389370e+01 -2.441004638933e-02 -4.586591733310e+00
 4.90000000e+00 -2.550899130236e-02 -4.673644474571e+00 -2.269498753604e+01 +8.536422270005e+01 -2.269498753604e+01 +8.536422270005e+01 -2.540321398254e-02 -4.681674238259e+00
 5.00000000e+00 -2.652303966948e-02 -4.768528879898e+00 -2.252023284663e+01 +8.526737487364e+01 -2.252023284663e+01 +8.526737487364e+01 -2.641576652028e-02 -4.776735486678e+00
 5.10000000e+00 -2.755642833377e-02 -4.863391666649e+00 -2.234898114348e+01 +8.517053260731e+01 -2.234898114348e+01 +8.517053260731e+01 -2.744770255405e-02 -4.871775225853e+00
 5.20000000e+00 -2.860915684406e-02 -4.958232585112e+00 -2.218109718915e+01 +8.507369795409e+01 -2.218109718915e+01 +8.507369795408e+01 -2.849902052353e-02 -4.966793194594e+00
 5.30000000e+00 -2.968122458300e-02 -5.053051376795e+00 -2.201645346541e+01 +8.497687283707e+01 -2.201645346541e+01 +8.497687283706e+01 -2.956971869925e-02 -5.061789123724e+00
 5.40000000e+00 -3.077263071123e-02 -5.147847774935e+00 -2.185492959673e+01 +8.488005905867e+01 -2.185492959673e+01 +8.488005905867e+01 -3.065979513202e-02 -5.156762736537e+00
 5.50000000e+00 -3.188337411869e-02 -5.242621504995e+00 -2.169641182660e+01 +8.478325830928e+01 -2.169641182660e+01 +8.478325830928e+01 -3.176924760887e-02 -5.251713749252e+00
 5.60000000e+00 -3.301345338184e-02 -5.337372285133e+00 -2.154079254092e+01 +8.468647217529e+01 -2.154079254092e+01 +8.468647217529e+01 -3.289807361426e-02 -5.346641871438e+00
 5.70000000e+00 -3.416286672683e-02 -5.432099826660e+00 -2.138796983368e+01 +8.458970214664e+01 -2.138796983368e+01 +8.458970214664e+01 -3.404627029596e-02 -5.441546806428e+00
 5.80000000e+00 -3.533161199764e-02 -5.526803834471e+00 -2.123784711025e+01 +8.449294962377e+01 -2.123784711025e+01 +8.449294962377e+01 -3.521383443629e-02 -5.536428251714e+00
 5.90000000e+00 -3.651968662881e-02 -5.621484007463e+00 -2.109033272462e+01 +8.439621592417e+01 -2.109033272462e+01 +8.439621592416e+01 -3.640076242701e-02 -5.631285899324e+00
 6.00000000e+00 -3.772708762217e-02 -5.716140038926e+00 -2.094533964704e+01 +8.429950228839e+01 -2.094533964704e+01 +8.429950228839e+01 -3.760705024769e-02 -5.726119436176e+00
 6.10000000e+00 -3.895381152730e-02 -5.810771616919e+00 -2.080278515916e+01 +8.420280988571e+01 -2.080278515916e+01 +8.420280988571e+01 -3.883269344743e-02 -5.820928544425e+00
 6.20000000e+00 -4.019985442518e-02 -5.905378424631e+00 -2.066259057389e+01 +8.410613981934e+01 -2.066259057389e+01 +8.410613981934e+01 -4.007768713017e-02 -5.915712901786e+00
 6.30000000e+00 -4.146521191494e-02 -5.999960140712e+00 -2.052468097770e+01 +8.400949313126e+01 -2.052468097770e+01 +8.400949313126e+01 -4.134202594136e-02 -6.010472181842e+00
 6.40000000e+00 -4.274987910285e-02 -6.094516439601e+00 -2.038898499308e+01 +8.391287080677e+01 -2.038898499308e+01 +8.391287080677e+01 -4.262570405833e-02 -6.105206054335e+00
 6.50000000e+00 -4.405385059394e-02 -6.189046991825e+00 -2.025543455954e+01 +8.381627377861e+01 -2.025543455954e+01 +8.381627377861e+01 -4.392871518163e-02 -6.199914185450e+00
 6.60000000e+00 -4.537712048537e-02 -6.283551464290e+00 -2.012396473121e+01 +8.371970293090e+01 -2.012396473121e+01 +8.371970293090e+01 -4.525105252938e-02 -6.294596238069e+00
 6.70000000e+00 -4.671968236191e-02 -6.378029520551e+00 -1.999451348967e+01 +8.362315910269e+01 -1.999451348967e+01 +8.362315910269e+01 -4.659270883157e-02 -6.389251872031e+00
 6.80000000e+00 -4.808152929273e-02 -6.472480821071e+00 -1.986702157063e+01 +8.352664309132e+01 -1.986702157063e+01 +8.352664309132e+01 -4.795367632806e-02 -6.483880744356e+00
 6.90000000e+00 -4.946265382965e-02 -6.566905023461e+00 -1.974143230327e+01 +8.343015565552e+01 -1.974143230327e+01 +8.343015565552e+01 -4.933394676563e-02 -6.578482509480e+00
 7.00000000e+00 -5.086304800672e-02 -6.661301782714e+00 -1.961769146106e+01 +8.333369751824e+01 -1.961769146106e+01 +8.333369751824e+01 -5.073351139800e-02 -6.673056819456e+00
 7.10000000e+00 -5.228270334081e-02 -6.755670751416e+00 -1.949574712324e+01 +8.323726936935e+01 -1.949574712324e+01 +8.323726936935e+01 -5.215236098548e-02 -6.767603324160e+00
 7.20000000e+00 -5.372161083303e-02 -6.850011579957e+00 -1.937554954591e+01 +8.314087186809e+01 -1.937554954591e+01 +8.314087186809e+01 -5.359048579640e-02 -6.862121671477e+00
 7.30000000e+00 -5.517976097124e-02 -6.944323916718e+00 -1.925705104200e+01 +8.304450564535e+01 -1.925705104200e+01 +8.304450564535e+01 -5.504787560895e-02 -6.956611507478e+00
 7.40000000e+00 -5.665714373287e-02 -7.038607408255e+00 -1.914020586945e+01 +8.294817130577e+01 -1.914020586945e+01 +8.294817130577e+01 -5.652451971360e-02 -7.051072476590e+00
 7.50000000e+00 -5.815374858864e-02 -7.132861699474e+00 -1.902497012683e+01 +8.285186942973e+01 -1.902497012683e+01 +8.285186942973e+01 -5.802040691612e-02 -7.145504221755e+00
 7.60000000e+00 -5.966956450673e-02 -7.227086433786e+00 -1.891130165589e+01 +8.275560057513e+01 -1.891130165589e+01 +8.275560057513e+01 -5.953552554139e-02 -7.239906384576e+00
 7.70000000e+00 -6.120457995734e-02 -7.321281253267e+00 -1.879915995049e+01 +8.265936527912e+01 -1.879915995049e+01 +8.265936527912e+01 -6.106986343727e-02 -7.334278605465e+00
 7.80000000e+00 -6.275878291762e-02 -7.415445798794e+00 -1.868850607134e+01 +8.256316405961e+01 -1.868850607134e+01 +8.256316405961e+01 -6.262340797926e-02 -7.428620523770e+00
 7.90000000e+00 -6.433216087691e-02 -7.509579710189e+00 -1.857930256624e+01 +8.246699741673e+01 -1.857930256624e+01 +8.246699741673e+01 -6.419614607446e-02 -7.522931777905e+00
 8.00000000e+00 -6.592470084230e-02 -7.603682626340e+00 -1.847151339528e+01 +8.237086583419e+01 -1.847151339528e+01 +8.237086583419e+01 -6.578806416740e-02 -7.617212005467e+00
 8.10000000e+00 -6.753638934425e-02 -7.697754185325e+00 -1.836510386072e+01 +8.227476978047e+01 -1.836510386072e+01 +8.227476978047e+01 -6.739914824450e-02 -7.711460843352e+00
 8.20000000e+00 -6.916721244255e-02 -7.791794024526e+00 -1.826004054109e+01 +8.217870971000e+01 -1.826004054109e+01 +8.217870971000e+01 -6.902938383975e-02 -7.805677927854e+00
 8.30000000e+00 -7.081715573224e-02 -7.885801780734e+00 -1.815629122939e+01 +8.208268606422e+01 -1.815629122939e+01 +8.208268606422e+01 -7.067875603977e-02 -7.899862894774e+00
 8.40000000e+00 -7.248620434973e-02 -7.979777090251e+00 -1.805382487492e+01 +8.198669927254e+01 -1.805382487492e+01 +8.198669927254e+01 -7.234724948970e-02 -7.994015379506e+00
 8.50000000e+00 -7.417434297888e-02 -8.073719588989e+00 -1.795261152854e+01 +8.189074975329e+01 -1.795261152854e+01 +8.189074975329e+01 -7.403484839852e-02 -8.088135017132e+00
 8.60000000e+00 -7.588155585720e-02 -8.167628912553e+00 -1.785262229114e+01 +8.179483791449e+01 -1.785262229114e+01 +8.179483791449e+01 -7.574153654480e-02 -8.182221442505e+00
 8.70000000e+00 -7.760782678207e-02 -8.261504696332e+00 -1.775382926516e+01 +8.169896415472e+01 -1.775382926516e+01 +8.169896415472e+01 -7.746729728220e-02 -8.276274290327e+00
 8.80000000e+00 -7.935313911686e-02 -8.355346575579e+00 -1.765620550874e+01 +8.160312886375e+01 -1.765620550874e+01 +8.160312886375e+01 -7.921211354556e-02 -8.370293195226e+00
 8.90000000e+00 -8.111747579708e-02 -8.449154185482e+00 -1.755972499255e+01 +8.150733242326e+01 -1.755972499255e+01 +8.150733242326e+01 -8.097596785590e-02 -8.464277791827e+00
 9.00000000e+00 -8.290081933654e-02 -8.542927161240e+00 -1.746436255903e+01 +8.141157520747e+01 -1.746436255903e+01 +8.141157520747e+01 -8.275884232663e-02 -8.558227714820e+00
 9.10000000e+00 -8.470315183339e-02 -8.636665138130e+00 -1.737009388387e+01 +8.131585758364e+01 -1.737009388387e+01 +8.131585758364e+01 -8.456071866869e-02 -8.652142599019e+00
 9.20000000e+00 -8.652445497609e-02 -8.730367751569e+00 -1.727689543952e+01 +8.122017991266e+01 -1.727689543952e+01 +8.122017991266e+01 -8.638157819648e-02 -8.746022079431e+00
 9.30000000e+00 -8.836471004936e-02 -8.824034637177e+00 -1.718474446081e+01 +8.112454254953e+01 -1.718474446081e+01 +8.112454254953e+01 -8.822140183303e-02 -8.839865791303e+00
 9.40000000e+00 -9.022389794009e-02 -8.917665430832e+00 -1.709361891229e+01 +8.102894584376e+01 -1.709361891229e+01 +8.102894584376e+01 -9.008017011570e-02 -8.933673370184e+00
 9.50000000e+00 -9.210199914303e-02 -9.011259768725e+00 -1.700349745735e+01 +8.093339013984e+01 -1.700349745735e+01 +8.093339013984e+01 -9.195786320124e-02 -9.027444451973e+00
 9.60000000e+00 -9.399899376649e-02 -9.104817287413e+00 -1.691435942896e+01 +8.083787577760e+01 -1.691435942896e+01 +8.083787577760e+01 -9.385446087123e-02 -9.121178672966e+00
 9.70000000e+00 -9.591486153801e-02 -9.198337623865e+00 -1.682618480186e+01 +8.074240309256e+01 -1.682618480186e+01 +8.074240309256e+01 -9.576994253732e-02 -9.214875669902e+00
 9.80000000e+00 -9.784958180975e-02 -9.291820415507e+00 -1.673895416628e+01 +8.064697241627e+01 -1.673895416628e+01 +8.064697241627e+01 -9.770428724633e-02 -9.308535080012e+00
 9.90000000e+00 -9.980313356397e-02 -9.385265300269e+00 -1.665264870293e+01 +8.055158407659e+01 -1.665264870293e+01 +8.055158407659e+01 -9.965747368515e-02 -9.402156541054e+00
 1.00000000e+01 -1.017754954182e-01 -9.478671916626e+00 -1.656725015921e+01 +8.045623839799e+01 -1.656725015921e+01 +8.045623839799e+01 -1.016294801858e-01 -9.495739691352e+00
 1.01000000e+01 -1.037666456308e-01 -9.572039903634e+00 -1.648274082672e+01 +8.036093570179e+01 -1.648274082672e+01 +8.036093570179e+01 -1.036202847304e-01 -9.589284169841e+00
 1.02000000e+01 -1.057765621054e-01 -9.665368900969e+00 -1.639910351972e+01 +8.026567630639e+01 -1.639910351972e+01 +8.026567630639e+01 -1.056298649557e-01 -9.682789616091e+00
 1.03000000e+01 -1.078052223967e-01 -9.758658548964e+00 -1.631632155481e+01 +8.017046052750e+01 -1.631632155481e+01 +8.017046052750e+01 -1.076581981579e-01 -9.776255670352e+00
 1.04000000e+01 -1.098526037146e-01 -9.851908488639e+00 -1.623437873143e+01 +8.007528867834e+01 -1.623437873143e+01 +8.007528867834e+01 -1.097052612973e-01 -9.869681973576e+00
 1.05000000e+01 -1.119186829298e-01 -9.945118361738e+00 -1.615325931344e+01 +7.998016106980e+01 -1.615325931344e+01 +7.998016106980e+01 -1.117710310027e-01 -9.963068167457e+00
 1.06000000e+01 -1.140034365777e-01 -1.003828781075e+01 -1.607294801145e+01 +7.988507801066e+01 -1.607294801145e+01 +7.988507801066e+01 -1.138554835758e-01 -1.005641389445e+01
 1.07000000e+01 -1.161068408637e-01 -1.013141647896e+01 -1.599342996604e+01 +7.979003980766e+01 -1.599342996604e+01 +7.979003980765e+01 -1.159585949958e-01 -1.014971879781e+01
 1.08000000e+01 -1.182288716670e-01 -1.022450401044e+01 -1.591469073177e+01 +7.969504676571e+01 -1.591469073177e+01 +7.969504676571e+01 -1.180803409231e-01 -1.024298252160e+01
 1.09000000e+01 -1.203695045459e-01 -1.031755005011e+01 -1.583671626189e+01 +7.960009918799e+01 -1.583671626189e+01 +7.960009918799e+01 -1.202206967042e-01 -1.033620471075e+01
 1.10000000e+01 -1.225287147412e-01 -1.041055424374e+01 -1.575949289379e+01 +7.950519737610e+01 -1.575949289379e+01 +7.950519737610e+01 -1.223796373752e-01 -1.042938501103e+01
 1.11000000e+01 -1.247064771812e-01 -1.050351623800e+01 -1.568300733506e+01 +7.941034163010e+01 -1.568300733506e+01 +7.941034163010e+01 -1.245571376659e-01 -1.052252306913e+01
 1.12000000e+01 -1.269027664855e-01 -1.059643568044e+01 -1.560724665018e+01 +7.931553224869e+01 -1.560724665018e+01 +7.931553224869e+01 -1.267531720040e-01 -1.061561853263e+01
 1.13000000e+01 -1.291175569689e-01 -1.068931221955e+01 -1.553219824789e+01 +7.922076952922e+01 -1.553219824789e+01 +7.922076952921e+01 -1.289677145187e-01 -1.070867105007e+01
 1.14000000e+01 -1.313508226456e-01 -1.078214550479e+01 -1.545784986898e+01 +7.912605376783e+01 -1.545784986898e+01 +7.912605376783e+01 -1.312007390445e-01 -1.080168027091e+01
 1.15000000e+01 -1.336025372333e-01 -1.087493518654e+01 -1.538418957471e+01 +7.903138525951e+01 -1.538418957471e+01 +7.903138525951e+01 -1.334522191250e-01 -1.089464584563e+01
 1.16000000e+01 -1.358726741566e-01 -1.096768091622e+01 -1.531120573570e+01 +7.893676429815e+01 -1.531120573570e+01 +7.893676429815e+01 -1.357221280164e-01 -1.098756742565e+01
 1.17000000e+01 -1.381612065510e-01 -1.106038234621e+01 -1.523888702129e+01 +7.884219117661e+01 -1.523888702129e+01 +7.884219117661e+01 -1.380104386911e-01 -1.108044466345e+01
 1.18000000e+01 -1.404681072663e-01 -1.115303912995e+01 -1.516722238936e+01 +7.874766618679e+01 -1.516722238936e+01 +7.874766618678e+01 -1.403171238411e-01 -1.117327721250e+01
 1.19000000e+01 -1.427933488707e-01 -1.124565092188e+01 -1.509620107661e+01 +7.865318961962e+01 -1.509620107661e+01 +7.865318961962e+01 -1.426421558817e-01 -1.126606472732e+01
 1.20000000e+01 -1.451369036537e-01 -1.133821737754e+01 -1.502581258917e+01 +7.855876176520e+01 -1.502581258917e+01 +7.855876176520e+01 -1.449855069545e-01 -1.135880686350e+01
 1.21000000e+01 -1.474987436301e-01 -1.143073815351e+01 -1.495604669368e+01 +7.846438291275e+01 -1.495604669368e+01 +7.846438291275e+01 -1.473471489309e-01 -1.145150327770e+01
 1.22000000e+01 -1.498788405430e-01 -1.152321290746e+01 -1.488689340870e+01 +7.837005335069e+01 -1.488689340870e+01 +7.837005335069e+01 -1.497270534154e-01 -1.154415362765e+01
 1.23000000e+01 -1.522771658673e-01 -1.161564129817e+01 -1.481834299646e+01 +7.827577336667e+01 -1.481834299646e+01 +7.827577336667e+01 -1.521251917483e-01 -1.163675757221e+01
 1.24000000e+01 -1.546936908128e-01 -1.170802298553e+01 -1.475038595498e+01 +7.818154324756e+01 -1.475038595498e+01 +7.818154324756e+01 -1.545415350094e-01 -1.172931477133e+01
 1.25000000e+01 -1.571283863277e-01 -1.180035763054e+01 -1.468301301047e+01 +7.808736327952e+01 -1.468301301047e+01 +7.808736327952e+01 -1.569760540209e-01 -1.182182488610e+01
 1.26000000e+01 -1.595812231016e-01 -1.189264489537e+01 -1.461621511006e+01 +7.799323374800e+01 -1.461621511006e+01 +7.799323374800e+01 -1.594287193501e-01 -1.191428757874e+01
 1.27000000e+01 -1.620521715683e-01 -1.198488444331e+01 -1.454998341478e+01 +7.789915493776e+01 -1.454998341478e+01 +7.789915493776e+01 -1.618995013128e-01 -1.200670251263e+01
 1.28000000e+01 -1.645412019091e-01 -1.207707593884e+01 -1.448430929288e+01 +7.780512713286e+01 -1.448430929288e+01 +7.780512713286e+01 -1.643883699759e-01 -1.209906935230e+01
 1.29000000e+01 -1.670482840560e-01 -1.216921904759e+01 -1.441918431335e+01 +7.771115061672e+01 -1.441918431335e+01 +7.771115061672e+01 -1.668952951600e-01 -1.219138776347e+01
 1.30000000e+01 -1.695733876941e-01 -1.226131343640e+01 -1.435460023970e+01 +7.761722567209e+01 -1.435460023970e+01 +7.761722567209e+01 -1.694202464430e-01 -1.228365741303e+01
 1.31000000e+01 -1.721164822649e-01 -1.235335877329e+01 -1.429054902402e+01 +7.752335258106e+01 -1.429054902402e+01 +7.752335258106e+01 -1.719631931624e-01 -1.237587796907e+01
 1.32000000e+01 -1.746775369688e-01 -1.244535472749e+01 -1.422702280120e+01 +7.742953162511e+01 -1.422702280120e+01 +7.742953162511e+01 -1.745241044175e-01 -1.246804910089e+01
 1.33000000e+01 -1.772565207683e-01 -1.253730096943e+01 -1.416401388344e+01 +7.733576308505e+01 -1.416401388344e+01 +7.733576308505e+01 -1.771029490731e-01 -1.256017047900e+01
 1.34000000e+01 -1.798534023901e-01 -1.262919717080e+01 -1.410151475490e+01 +7.724204724107e+01 -1.410151475490e+01 +7.724204724107e+01 -1.796996957613e-01 -1.265224177512e+01
 1.35000000e+01 -1.824681503287e-01 -1.272104300449e+01 -1.403951806660e+01 +7.714838437272e+01 -1.403951806660e+01 +7.714838437272e+01 -1.823143128848e-01 -1.274426266222e+01
 1.36000000e+01 -1.851007328480e-01 -1.281283814466e+01 -1.397801663148e+01 +7.705477475891e+01 -1.397801663148e+01 +7.705477475891e+01 -1.849467686186e-01 -1.283623281450e+01
 1.37000000e+01 -1.877511179847e-01 -1.290458226671e+01 -1.391700341963e+01 +7.696121867792e+01 -1.391700341963e+01 +7.696121867792e+01 -1.875970309134e-01 -1.292815190742e+01
 1.38000000e+01 -1.904192735507e-01 -1.299627504728e+01 -1.385647155376e+01 +7.686771640739e+01 -1.385647155376e+01 +7.686771640739e+01 -1.902650674972e-01 -1.302001961768e+01
 1.39000000e+01 -1.931051671353e-01 -1.308791616432e+01 -1.379641430472e+01 +7.677426822430e+01 -1.379641430472e+01 +7.677426822430e+01 -1.929508458789e-01 -1.311183562327e+01
 1.40000000e+01 -1.958087661082e-01 -1.317950529703e+01 -1.373682508730e+01 +7.668087440501e+01 -1.373682508730e+01 +7.668087440501e+01 -1.956543333494e-01 -1.320359960342e+01
 1.41000000e+01 -1.985300376214e-01 -1.327104212589e+01 -1.367769745610e+01 +7.658753522520e+01 -1.367769745610e+01 +7.658753522520e+01 -1.983754969849e-01 -1.329531123868e+01
 1.42000000e+01 -2.012689486123e-01 -1.336252633268e+01 -1.361902510158e+01 +7.649425095990e+01 -1.361902510158e+01 +7.649425095990e+01 -2.011143036489e-01 -1.338697021085e+01
 1.43000000e+01 -2.040254658055e-01 -1.345395760049e+01 -1.356080184623e+01 +7.640102188348e+01 -1.356080184623e+01 +7.640102188348e+01 -2.038707199948e-01 -1.347857620305e+01
 1.44000000e+01 -2.067995557154e-01 -1.354533561368e+01 -1.350302164089e+01 +7.630784826962e+01 -1.350302164089e+01 +7.630784826962e+01 -2.066447124678e-01 -1.357012889968e+01
 1.45000000e+01 -2.095911846487e-01 -1.363666005797e+01 -1.344567856120e+01 +7.621473039134e+01 -1.344567856120e+01 +7.621473039134e+01 -2.094362473073e-01 -1.366162798648e+01
 1.46000000e+01 -2.124003187065e-01 -1.372793062036e+01 -1.338876680417e+01 +7.612166852095e+01 -1.338876680417e+01 +7.612166852095e+01 -2.122452905493e-01 -1.375307315047e+01
 1.47000000e+01 -2.152269237865e-01 -1.381914698918e+01 -1.333228068480e+01 +7.602866293006e+01 -1.333228068480e+01 +7.602866293006e+01 -2.150718080285e-01 -1.384446408002e+01
 1.48000000e+01 -2.180709655856e-01 -1.391030885411e+01 -1.327621463298e+01 +7.593571388958e+01 -1.327621463298e+01 +7.593571388958e+01 -2.179157653804e-01 -1.393580046480e+01
 1.49000000e+01 -2.209324096016e-01 -1.400141590616e+01 -1.322056319028e+01 +7.584282166970e+01 -1.322056319028e+01 +7.584282166970e+01 -2.207771280438e-01 -1.402708199583e+01
 1.50000000e+01 -2.238112211362e-01 -1.409246783766e+01 -1.316532100704e+01 +7.574998653987e+01 -1.316532100704e+01 +7.574998653987e+01 -2.236558612624e-01 -1.411830836546e+01
 1.51000000e+01 -2.267073652962e-01 -1.418346434233e+01 -1.311048283943e+01 +7.565720876882e+01 -1.311048283943e+01 +7.565720876882e+01 -2.265519300874e-01 -1.420947926740e+01
 1.52000000e+01 -2.296208069964e-01 -1.427440511520e+01 -1.305604354667e+01 +7.556448862450e+01 -1.305604354667e+01 +7.556448862450e+01 -2.294652993793e-01 -1.430059439670e+01
 1.53000000e+01 -2.325515109615e-01 -1.436528985268e+01 -1.300199808831e+01 +7.547182637414e+01 -1.300199808831e+01 +7.547182637414e+01 -2.323959338102e-01 -1.439165344975e+01
 1.54000000e+01 -2.354994417281e-01 -1.445611825257e+01 -1.294834152160e+01 +7.537922228417e+01 -1.294834152160e+01 +7.537922228417e+01 -2.353437978657e-01 -1.448265612432e+01
 1.55000000e+01 -2.384645636469e-01 -1.454689001399e+01 -1.289506899901e+01 +7.528667662024e+01 -1.289506899901e+01 +7.528667662024e+01 -2.383088558468e-01 -1.457360211954e+01
 1.56000000e+01 -2.414468408848e-01 -1.463760483747e+01 -1.284217576571e+01 +7.519418964722e+01 -1.284217576571e+01 +7.519418964722e+01 -2.412910718724e-01 -1.466449113592e+01
 1.57000000e+01 -2.444462374267e-01 -1.472826242491e+01 -1.278965715723e+01 +7.510176162916e+01 -1.278965715723e+01 +7.510176162916e+01 -2.442904098808e-01 -1.475532287532e+01
 1.58000000e+01 -2.474627170780e-01 -1.481886247959e+01 -1.273750859717e+01 +7.500939282931e+01 -1.273750859717e+01 +7.500939282931e+01 -2.473068336319e-01 -1.484609704100e+01
 1.59000000e+01 -2.504962434663e-01 -1.490940470618e+01 -1.268572559492e+01 +7.491708351008e+01 -1.268572559492e+01 +7.491708351008e+01 -2.503403067090e-01 -1.493681333761e+01
 1.60000000e+01 -2.535467800431e-01 -1.499988881076e+01 -1.263430374360e+01 +7.482483393305e+01 -1.263430374360e+01 +7.482483393305e+01 -2.533907925212e-01 -1.502747147116e+01
 1.61000000e+01 -2.566142900866e-01 -1.509031450079e+01 -1.258323871787e+01 +7.473264435895e+01 -1.258323871787e+01 +7.473264435895e+01 -2.564582543046e-01 -1.511807114909e+01
 1.62000000e+01 -2.596987367029e-01 -1.518068148513e+01 -1.253252627196e+01 +7.464051504766e+01 -1.253252627196e+01 +7.464051504766e+01 -2.595426551250e-01 -1.520861208021e+01
 1.63000000e+01 -2.628000828281e-01 -1.527098947406e+01 -1.248216223770e+01 +7.454844625816e+01 -1.248216223770e+01 +7.454844625816e+01 -2.626439578793e-01 -1.529909397475e+01
 1.64000000e+01 -2.659182912306e-01 -1.536123817925e+01 -1.243214252262e+01 +7.445643824857e+01 -1.243214252262e+01 +7.445643824857e+01 -2.657621252974e-01 -1.538951654432e+01
 1.65000000e+01 -2.690533245127e-01 -1.545142731382e+01 -1.238246310809e+01 +7.436449127612e+01 -1.238246310809e+01 +7.436449127612e+01 -2.688971199442e-01 -1.547987950198e+01
 1.66000000e+01 -2.722051451124e-01 -1.554155659227e+01 -1.233312004756e+01 +7.427260559713e+01 -1.233312004756e+01 +7.427260559713e+01 -2.720489042217e-01 -1.557018256216e+01
 1.67000000e+01 -2.753737153057e-01 -1.563162573055e+01 -1.228410946479e+01 +7.418078146699e+01 -1.228410946479e+01 +7.418078146699e+01 -2.752174403702e-01 -1.566042544074e+01
 1.68000000e+01 -2.785589972080e-01 -1.572163444602e+01 -1.223542755220e+01 +7.408901914019e+01 -1.223542755220e+01 +7.408901914019e+01 -2.784026904709e-01 -1.575060785501e+01
 1.69000000e+01 -2.817609527764e-01 -1.581158245746e+01 -1.218707056920e+01 +7.399731887026e+01 -1.218707056920e+01 +7.399731887026e+01 -2.816046164472e-01 -1.584072952367e+01
 1.70000000e+01 -2.849795438111e-01 -1.590146948512e+01 -1.213903484065e+01 +7.390568090979e+01 -1.213903484065e+01 +7.390568090979e+01 -2.848231800666e-01 -1.593079016688e+01
 1.71000000e+01 -2.882147319577e-01 -1.599129525064e+01 -1.209131675529e+01 +7.381410551044e+01 -1.209131675529e+01 +7.381410551043e+01 -2.880583429426e-01 -1.602078950620e+01
 1.72000000e+01 -2.914664787085e-01 -1.608105947714e+01 -1.204391276427e+01 +7.372259292284e+01 -1.204391276427e+01 +7.372259292284e+01 -2.913100665364e-01 -1.611072726464e+01
 1.73000000e+01 -2.947347454050e-01 -1.617076188915e+01 -1.199681937968e+01 +7.363114339671e+01 -1.199681937968e+01 +7.363114339671e+01 -2.945783121589e-01 -1.620060316665e+01
 1.74000000e+01 -2.980194932389e-01 -1.626040221267e+01 -1.195003317313e+01 +7.353975718073e+01 -1.195003317313e+01 +7.353975718073e+01 -2.978630409723e-01 -1.629041693812e+01
 1.75000000e+01 -3.013206832547e-01 -1.634998017513e+01 -1.190355077444e+01 +7.344843452261e+01 -1.190355077444e+01 +7.344843452261e+01 -3.011642139916e-01 -1.638016830637e+01
 1.76000000e+01 -3.046382763508e-01 -1.643949550543e+01 -1.185736887024e+01 +7.335717566904e+01 -1.185736887024e+01 +7.335717566904e+01 -3.044817920868e-01 -1.646985700020e+01
 1.77000000e+01 -3.079722332817e-01 -1.652894793391e+01 -1.181148420273e+01 +7.326598086569e+01 -1.181148420273e+01 +7.326598086569e+01 -3.078157359845e-01 -1.655948274981e+01
 1.78000000e+01 -3.113225146595e-01 -1.661833719238e+01 -1.176589356840e+01 +7.317485035720e+01 -1.176589356840e+01 +7.317485035720e+01 -3.111660062694e-01 -1.664904528690e+01
 1.79000000e+01 -3.146890809559e-01 -1.670766301409e+01 -1.172059381684e+01 +7.308378438720e+01 -1.172059381684e+01 +7.308378438720e+01 -3.145325633863e-01 -1.673854434461e+01
 1.80000000e+01 -3.180718925038e-01 -1.679692513378e+01 -1.167558184951e+01 +7.299278319823e+01 -1.167558184951e+01 +7.299278319823e+01 -3.179153676419e-01 -1.682797965752e+01
 1.81000000e+01 -3.214709094989e-01 -1.688612328763e+01 -1.163085461862e+01 +7.290184703181e+01 -1.163085461862e+01 +7.290184703181e+01 -3.213143792059e-01 -1.691735096170e+01
 1.82000000e+01 -3.248860920018e-01 -1.697525721330e+01 -1.158640912600e+01 +7.281097612837e+01 -1.158640912600e+01 +7.281097612837e+01 -3.247295581135e-01 -1.700665799466e+01
 1.83000000e+01 -3.283173999394e-01 -1.706432664992e+01 -1.154224242202e+01 +7.272017072728e+01 -1.154224242202e+01 +7.272017072728e+01 -3.281608642666e-01 -1.709590049540e+01
 1.84000000e+01 -3.317647931067e-01 -1.715333133809e+01 -1.149835160452e+01 +7.262943106682e+01 -1.149835160452e+01 +7.262943106682e+01 -3.316082574355e-01 -1.718507820436e+01
 1.85000000e+01 -3.352282311684e-01 -1.724227101990e+01 -1.145473381777e+01 +7.253875738419e+01 -1.145473381777e+01 +7.253875738419e+01 -3.350716972608e-01 -1.727419086347e+01
 1.86000000e+01 -3.387076736611e-01 -1.733114543889e+01 -1.141138625149e+01 +7.244814991548e+01 -1.141138625149e+01 +7.244814991548e+01 -3.385511432549e-01 -1.736323821613e+01
 1.87000000e+01 -3.422030799941e-01 -1.741995434009e+01 -1.136830613986e+01 +7.235760889567e+01 -1.136830613986e+01 +7.235760889567e+01 -3.420465548037e-01 -1.745222000720e+01
 1.88000000e+01 -3.457144094519e-01 -1.750869747002e+01 -1.132549076055e+01 +7.226713455864e+01 -1.132549076055e+01 +7.226713455864e+01 -3.455578911683e-01 -1.754113598305e+01
 1.89000000e+01 -3.492416211955e-01 -1.759737457668e+01 -1.128293743385e+01 +7.217672713711e+01 -1.128293743385e+01 +7.217672713711e+01 -3.490851114865e-01 -1.762998589148e+01
 1.90000000e+01 -3.527846742640e-01 -1.768598540954e+01 -1.124064352172e+01 +7.208638686272e+01 -1.124064352172e+01 +7.208638686272e+01 -3.526281747746e-01 -1.771876948183e+01
 1.91000000e+01 -3.563435275765e-01 -1.777452971958e+01 -1.119860642691e+01 +7.199611396592e+01 -1.119860642691e+01 +7.199611396592e+01 -3.561870399291e-01 -1.780748650487e+01
 1.92000000e+01 -3.599181399336e-01 -1.786300725925e+01 -1.115682359216e+01 +7.190590867604e+01 -1.115682359216e+01 +7.190590867604e+01 -3.597616657281e-01 -1.789613671288e+01
 1.93000000e+01 -3.635084700190e-01 -1.795141778251e+01 -1.111529249931e+01 +7.181577122125e+01 -1.111529249931e+01 +7.181577122125e+01 -3.633520108331e-01 -1.798471985962e+01
 1.94000000e+01 -3.671144764013e-01 -1.803976104477e+01 -1.107401066851e+01 +7.172570182855e+01 -1.107401066851e+01 +7.172570182855e+01 -3.669580337905e-01 -1.807323570036e+01
 1.95000000e+01 -3.707361175357e-01 -1.812803680300e+01 -1.103297565744e+01 +7.163570072380e+01 -1.103297565744e+01 +7.163570072380e+01 -3.705796930334e-01 -1.816168399181e+01
 1.96000000e+01 -3.743733517651e-01 -1.821624481559e+01 -1.099218506054e+01 +7.154576813163e+01 -1.099218506054e+01 +7.154576813163e+01 -3.742169468830e-01 -1.825006449222e+01
 1.97000000e+01 -3.780261373225e-01 -1.830438484249e+01 -1.095163650825e+01 +7.145590427554e+01 -1.095163650825e+01 +7.145590427554e+01 -3.778697535503e-01 -1.833837696131e+01
 1.98000000e+01 -3.816944323320e-01 -1.839245664511e+01 -1.091132766627e+01 +7.136610937780e+01 -1.091132766627e+01 +7.136610937780e+01 -3.815380711376e-01 -1.842662116030e+01
 1.99000000e+01 -3.853781948107e-01 -1.848045998638e+01 -1.087125623490e+01 +7.127638365952e+01 -1.087125623490e+01 +7.127638365952e+01 -3.852218576404e-01 -1.851479685190e+01
 2.00000000e+01 -3.890773826702e-01 -1.856839463070e+01 -1.083141994827e+01 +7.118672734057e+01 -1.083141994827e+01 +7.118672734057e+01 -3.889210709486e-01 -1.860290380031e+01
